 vasp.5.4.4.18Apr17-6-g9f103f2a35 (build Jun 30 2017 19:19:18) complex

 executed on         MareNostrum4 date 2022.04.12  11:03:59

 INCAR:
 POTCAR:    PAW_PBE Cu 22Jun2005
 POTCAR:    PAW_PBE O 08Apr2002
 POTCAR:    PAW_PBE C 08Apr2002
 POTCAR:    PAW_PBE N 08Apr2002
 POTCAR:    PAW_PBE H 15Jun2001

 POTCAR:    PAW_PBE Cu 22Jun2005

 POTCAR:    PAW_PBE O 08Apr2002

[...]

 POTCAR:    PAW_PBE N 08Apr2002

 POTCAR:    PAW_PBE H 15Jun2001

 Optimization of the real space projectors (new method)

 maximal supplied QI-value         = 16.25
 optimisation between [QCUT,QGAM] = [ 10.73, 21.61] = [ 32.22,130.83] Ry
 Optimized for a Real-space Cutoff    1.42 Angstroem

   l    n(q)    QCUT    max X(q) W(low)/X(q) W(high)/X(q)  e(spline)
   2      8    10.726     4.610    0.15E-03    0.25E-03    0.14E-06
   2      8    10.726     8.522    0.25E-03    0.43E-03    0.27E-06
   0      9    10.726    51.609    0.94E-04    0.10E-03    0.12E-06
   0      9    10.726    27.747    0.85E-04    0.96E-04    0.11E-06
   1      9    10.726    20.408    0.25E-03    0.14E-03    0.12E-06
   1      9    10.726    13.425    0.22E-03    0.13E-03    0.11E-06
 Optimization of the real space projectors (new method)

[...]

   l    n(q)    QCUT    max X(q) W(low)/X(q) W(high)/X(q)  e(spline)
   0      8    10.807    79.467    0.34E-03    0.68E-03    0.21E-06
   0      8    10.807    66.151    0.34E-03    0.67E-03    0.21E-06
   1      7    10.807    14.030    0.45E-03    0.13E-02    0.11E-05
   1      7    10.807     9.831    0.48E-03    0.13E-02    0.11E-05
 Optimization of the real space projectors (new method)

 maximal supplied QI-value         = 34.20
 optimisation between [QCUT,QGAM] = [ 10.60, 21.55] = [ 31.48,130.03] Ry
 Optimized for a Real-space Cutoff    1.23 Angstroem

   l    n(q)    QCUT    max X(q) W(low)/X(q) W(high)/X(q)  e(spline)
   0      8    10.603    19.460    0.37E-03    0.59E-03    0.23E-06
   0      8    10.603    12.209    0.35E-03    0.56E-03    0.22E-06
   1      7    10.603     4.655    0.70E-04    0.28E-03    0.29E-06
  PAW_PBE Cu 22Jun2005                  :
  PAW_PBE O 08Apr2002                   :
  PAW_PBE C 08Apr2002                   :
  PAW_PBE N 08Apr2002                   :
  PAW_PBE H 15Jun2001                   :

 POSCAR: Cu  O  C  N  H
  positions in direct lattice
  velocities in cartesian coordinates
 exchange correlation table for  LEXCH =        8
   RHO(1)=    0.500       N(1)  =     2000
   RHO(2)=  100.500       N(2)  =     4000

 ion  position               nearest neighbor table
   1  0.000  0.000  0.000-   2 2.52   3 2.52   4 2.52  28 2.52  10 2.52  35 2.52  70 2.52  40 2.52
                            47 2.52
   2  0.000  0.167  0.000-   3 2.52   1 2.52   8 2.52  28 2.52   5 2.52  27 2.52  39 2.52  61 2.52
                            40 2.52
   3  0.167  0.167  0.000-   2 2.52   1 2.52   8 2.52  14 2.52   4 2.52  17 2.52  38 2.52  40 2.52
                            37 2.52
   4  0.167  0.000  0.000-  10 2.52  14 2.52   1 2.52  13 2.52   3 2.52  11 2.52  47 2.52  37 2.52
                            46 2.52
   5  0.000  0.333  0.000-   6 2.52   8 2.52  32 2.52   7 2.52  27 2.52   2 2.52  62 2.52  44 2.52
                            39 2.52
   6  0.000  0.500  0.000-  12 2.52   5 2.52   7 2.52   9 2.52  32 2.52  31 2.52  43 2.52  65 2.52
                            44 2.52
   7  0.167  0.500  0.000-  18 2.52   8 2.52  21 2.52   6 2.52   5 2.52  12 2.52  42 2.52  44 2.52
                            41 2.52
   8  0.167  0.333  0.000-   7 2.52   2 2.52  18 2.52   3 2.52   5 2.52  17 2.52  39 2.52  41 2.52
                            38 2.52
   9  0.000  0.667  0.000-  10 2.52  12 2.52  36 2.52  31 2.52   6 2.52  11 2.52  66 2.52  48 2.52
                            43 2.52
  10  0.000  0.833  0.000-   4 2.52   9 2.52  11 2.52   1 2.52  36 2.52  35 2.52  47 2.52  69 2.52
                            48 2.52
  11  0.167  0.833  0.000-  22 2.52  13 2.52  12 2.52  10 2.52   4 2.52   9 2.52  46 2.52  48 2.52
                            45 2.52
  12  0.167  0.667  0.000-   6 2.52  11 2.52  22 2.52   9 2.52  21 2.52   7 2.52  43 2.52  45 2.52
                            42 2.52
  13  0.333  0.000  0.000-  15 2.52  22 2.52  11 2.52  16 2.52   4 2.52  14 2.52  46 2.52  52 2.52
                            59 2.52
  14  0.333  0.167  0.000-   4 2.52  17 2.52  15 2.52   3 2.52  13 2.52  20 2.52  37 2.52  51 2.52
                            52 2.52
  15  0.500  0.167  0.000-  13 2.52  20 2.52  14 2.52  26 2.52  16 2.52  29 2.52  50 2.52  52 2.52
                            49 2.52
  16  0.500  0.000  0.000-  26 2.52  25 2.52  13 2.52  23 2.52  15 2.52  22 2.52  59 2.52  49 2.52
                            58 2.52
  17  0.333  0.333  0.000-  14 2.52  20 2.52   8 2.52  19 2.52  18 2.52   3 2.52  38 2.52  56 2.52
                            51 2.52
  18  0.333  0.500  0.000-   7 2.52  21 2.52   8 2.52  17 2.52  24 2.52  19 2.52  41 2.52  55 2.52
                            56 2.52
  19  0.500  0.500  0.000-  30 2.52  33 2.52  20 2.52  17 2.52  24 2.52  18 2.52  54 2.52  56 2.52
                            53 2.52
  20  0.500  0.333  0.000-  19 2.52  30 2.52  15 2.52  29 2.52  17 2.52  14 2.52  51 2.52  53 2.52
                            50 2.52
  21  0.333  0.667  0.000-  18 2.52   7 2.52  24 2.52  12 2.52  23 2.52  22 2.52  42 2.52  60 2.52
                            55 2.52
  22  0.333  0.833  0.000-  11 2.52  13 2.52  12 2.52  16 2.52  21 2.52  23 2.52  45 2.52  59 2.52
                            60 2.52
  23  0.500  0.833  0.000-  34 2.52  25 2.52  24 2.52  16 2.52  21 2.52  22 2.52  58 2.52  60 2.52
                            57 2.52
  24  0.500  0.667  0.000-  23 2.52  34 2.52  33 2.52  21 2.52  18 2.52  19 2.52  55 2.52  57 2.52
                            54 2.52
  25  0.667  0.000  0.000-  23 2.52  27 2.52  34 2.52  16 2.52  28 2.52  26 2.52  58 2.52  64 2.52
                            71 2.52
  26  0.667  0.167  0.000-  16 2.52  29 2.52  27 2.52  15 2.52  25 2.52  32 2.52  49 2.52  63 2.52
                            64 2.52
  27  0.833  0.167  0.000-  25 2.52  32 2.52  26 2.52  28 2.52   5 2.52   2 2.52  62 2.52  64 2.52
                            61 2.52
  28  0.833  0.000  0.000-  35 2.52   1 2.52  25 2.52  27 2.52  34 2.52   2 2.52  71 2.52  61 2.52
                            70 2.52
  29  0.667  0.333  0.000-  31 2.52  26 2.52  20 2.52  32 2.52  30 2.52  15 2.52  50 2.52  68 2.52
                            63 2.52
  30  0.667  0.500  0.000-  19 2.52  20 2.52  33 2.52  31 2.52  29 2.52  36 2.52  53 2.52  67 2.52
                            68 2.52
  31  0.833  0.500  0.000-  36 2.52  29 2.52  30 2.52  32 2.52   9 2.52   6 2.52  66 2.52  68 2.52
                            65 2.52
  32  0.833  0.333  0.000-  27 2.52   5 2.52  29 2.52   6 2.52  31 2.52  26 2.52  63 2.52  65 2.52
                            62 2.52
  33  0.667  0.667  0.000-  19 2.52  30 2.52  35 2.52  24 2.52  36 2.52  34 2.52  54 2.52  72 2.52
                            67 2.52
  34  0.667  0.833  0.000-  23 2.52  25 2.52  24 2.52  35 2.52  28 2.52  33 2.52  57 2.52  71 2.52
                            72 2.52
  35  0.833  0.833  0.000-  28 2.52  33 2.52  34 2.52   1 2.52  36 2.52  10 2.52  70 2.52  72 2.52
                            69 2.52
  36  0.833  0.667  0.000-  31 2.52   9 2.52  33 2.52  30 2.52  10 2.52  35 2.52  67 2.52  69 2.52
                            66 2.52
  37  0.222  0.111  0.097-  51 2.52  52 2.52  38 2.52  46 2.52  40 2.52  47 2.52  14 2.52   4 2.52
                             3 2.52  75 2.54  76 2.54  74 2.54
  38  0.222  0.278  0.097-  37 2.52  51 2.52  40 2.52  56 2.52  39 2.52  41 2.52   3 2.52  17 2.52
                             8 2.52  76 2.54  73 2.54  79 2.54
  39  0.056  0.278  0.097-  40 2.52  61 2.52  62 2.52  38 2.52  41 2.52  44 2.52   2 2.52   8 2.52
                             5 2.52 100 2.54  78 2.54  73 2.55
  40  0.056  0.111  0.097-  39 2.52  61 2.52  38 2.52  70 2.52  37 2.52  47 2.52   3 2.52   1 2.52
                             2 2.52  99 2.54  73 2.55  74 2.55
  41  0.222  0.444  0.097-  55 2.52  56 2.52  42 2.52  38 2.52  44 2.52  39 2.52  18 2.52   8 2.52
                             7 2.52  78 2.54  79 2.54  80 2.55
  42  0.222  0.611  0.097-  41 2.52  55 2.52  44 2.52  60 2.52  43 2.52  45 2.52   7 2.52  21 2.52
                            12 2.52  77 2.54  83 2.54  80 2.55
  43  0.056  0.611  0.097-  44 2.52  65 2.52  66 2.52  42 2.52  45 2.52  48 2.52   6 2.52  12 2.52
                             9 2.52  82 2.54 104 2.54  77 2.54
  44  0.056  0.444  0.097-  43 2.52  65 2.52  42 2.52  62 2.52  41 2.52  39 2.52   7 2.52   5 2.52
                             6 2.52  77 2.54 103 2.54  78 2.55
  45  0.222  0.778  0.097-  59 2.52  60 2.52  46 2.52  42 2.52  48 2.52  43 2.52  22 2.52  12 2.52
                            11 2.52  84 2.54  82 2.54  83 2.55
  46  0.222  0.944  0.097-  45 2.52  59 2.52  48 2.52  52 2.52  47 2.52  37 2.52  11 2.52  13 2.52
                             4 2.52  75 2.54  84 2.54  81 2.54
  47  0.056  0.944  0.097-  48 2.52  69 2.52  70 2.52  46 2.52  37 2.52  40 2.52  10 2.52   4 2.52
                             1 2.52  81 2.54 108 2.54  74 2.55
  48  0.056  0.778  0.097-  47 2.52  69 2.52  46 2.52  66 2.52  45 2.52  43 2.52  11 2.52   9 2.52
                            10 2.52  82 2.54  81 2.54 107 2.55
  49  0.556  0.111  0.097-  63 2.52  64 2.52  50 2.52  58 2.52  52 2.52  59 2.52  26 2.52  16 2.52
                            15 2.52  86 2.54  87 2.54  88 2.55
  50  0.556  0.278  0.097-  49 2.52  63 2.52  52 2.52  68 2.52  51 2.52  53 2.52  15 2.52  29 2.52
                            20 2.52  85 2.55  88 2.55  91 2.56
  51  0.389  0.278  0.097-  37 2.52  52 2.52  38 2.52  50 2.52  56 2.52  53 2.52  14 2.52  20 2.52
                            17 2.52  90 2.54  76 2.54  85 2.54
  52  0.389  0.111  0.097-  51 2.52  37 2.52  50 2.52  46 2.52  49 2.52  59 2.52  15 2.52  13 2.52
                            14 2.52  86 2.54  75 2.54  85 2.55
  53  0.556  0.444  0.097-  67 2.52  68 2.52  54 2.52  50 2.52  56 2.52  51 2.52  30 2.52  20 2.52
                            19 2.52  92 2.54  90 2.55  91 2.57
  54  0.556  0.611  0.097-  53 2.52  67 2.52  56 2.52  72 2.52  55 2.52  57 2.52  19 2.52  33 2.52
                            24 2.52  89 2.54  95 2.54  92 2.54
  55  0.389  0.611  0.097-  41 2.52  56 2.52  42 2.52  54 2.52  60 2.52  57 2.52  18 2.52  24 2.52
                            21 2.52  89 2.53  80 2.55  94 2.56
  56  0.389  0.444  0.097-  55 2.52  41 2.52  54 2.52  38 2.52  53 2.52  51 2.52  19 2.52  17 2.52
                            18 2.52  89 2.54  79 2.54  90 2.55
  57  0.556  0.778  0.097-  71 2.52  72 2.52  58 2.52  54 2.52  60 2.52  55 2.52  34 2.52  24 2.52
                            23 2.52  95 2.54  96 2.55  94 2.56
  58  0.556  0.944  0.097-  57 2.52  71 2.52  60 2.52  64 2.52  59 2.52  49 2.52  23 2.52  25 2.52
                            16 2.52  87 2.54  93 2.55  96 2.55
  59  0.389  0.944  0.097-  45 2.52  60 2.52  46 2.52  58 2.52  52 2.52  49 2.52  22 2.52  16 2.52
                            13 2.52  86 2.53  84 2.54  93 2.55
[...]
   -.812E+01 -.156E+01 0.367E+04   0.812E+01 0.155E+01 -.367E+04   0.143E-03 0.144E-01 -.207E+01   0.165E-02 -.582E-03 0.649E-02
   -.761E+01 0.834E+00 0.366E+04   0.766E+01 -.832E+00 -.366E+04   -.533E-01 -.652E-02 -.197E+01   0.168E-02 -.825E-03 0.658E-02
   -.582E+01 -.681E+01 0.367E+04   0.583E+01 0.682E+01 -.367E+04   0.426E-03 -.966E-02 -.197E+01   -.202E-03 0.995E-03 0.683E-02
   -.511E+01 -.939E+01 0.367E+04   0.505E+01 0.938E+01 -.367E+04   0.641E-01 0.924E-03 -.201E+01   -.117E-03 0.168E-02 0.699E-02
   -.701E+01 -.974E+01 0.367E+04   0.700E+01 0.973E+01 -.366E+04   0.153E-02 -.395E-02 -.192E+01   0.205E-03 0.196E-02 0.637E-02
   -.802E+01 -.675E+01 0.367E+04   0.804E+01 0.682E+01 -.367E+04   -.210E-01 -.653E-01 -.197E+01   0.856E-03 0.851E-03 0.629E-02
   0.175E+02 0.119E+02 0.135E+04   -.175E+02 -.119E+02 -.135E+04   -.429E-02 0.403E-01 -.537E+00   -.743E-03 0.170E-03 0.222E-01
   0.184E+02 0.175E+02 0.135E+04   -.185E+02 -.175E+02 -.135E+04   0.253E-01 -.130E-01 -.480E+00   -.126E-02 -.323E-03 0.225E-01
   0.442E+01 0.109E+02 0.134E+04   -.440E+01 -.109E+02 -.134E+04   -.102E-01 -.275E-01 -.571E+00   -.380E-03 -.200E-03 0.223E-01
   0.498E+01 0.366E+01 0.133E+04   -.496E+01 -.367E+01 -.133E+04   -.143E-01 0.879E-02 -.602E+00   -.766E-03 0.676E-03 0.220E-01
   0.176E+02 0.156E+02 0.136E+04   -.176E+02 -.156E+02 -.136E+04   -.487E-02 0.319E-01 -.430E+00   -.919E-03 -.502E-03 0.228E-01
   0.148E+02 0.648E+01 0.136E+04   -.148E+02 -.650E+01 -.136E+04   0.315E-01 0.167E-01 -.481E+00   0.164E-04 -.467E-03 0.228E-01
   0.269E+01 0.431E+00 0.135E+04   -.268E+01 -.436E+00 -.135E+04   -.154E-01 0.414E-02 -.405E+00   0.123E-02 -.646E-03 0.224E-01
   0.307E+01 0.961E+01 0.135E+04   -.308E+01 -.960E+01 -.135E+04   0.149E-01 -.654E-02 -.446E+00   0.505E-03 -.725E-03 0.225E-01
   0.136E+02 0.784E+00 0.136E+04   -.136E+02 -.781E+00 -.136E+04   0.230E-01 -.852E-02 -.476E+00   0.734E-03 -.202E-03 0.225E-01
   0.155E+02 0.409E+01 0.135E+04   -.155E+02 -.406E+01 -.135E+04   -.827E-02 -.351E-01 -.472E+00   0.286E-03 0.238E-03 0.222E-01
   0.393E+01 -.517E+01 0.134E+04   -.393E+01 0.517E+01 -.134E+04   0.434E-02 0.290E-02 -.512E+00   -.319E-03 0.115E-02 0.220E-01
   0.290E+01 -.666E+01 0.135E+04   -.288E+01 0.666E+01 -.135E+04   -.278E-01 -.152E-02 -.444E+00   0.801E-03 0.362E-03 0.221E-01
   -.592E+01 0.150E+01 0.137E+04   0.590E+01 -.151E+01 -.137E+04   0.207E-01 0.243E-01 -.336E+00   0.720E-03 -.506E-03 0.228E-01
   -.527E+01 0.592E+01 0.138E+04   0.526E+01 -.592E+01 -.138E+04   0.102E-01 0.125E-01 -.501E+00   0.369E-03 -.934E-03 0.229E-01
   0.127E+02 0.166E+02 0.137E+04   -.127E+02 -.166E+02 -.137E+04   0.138E-01 -.115E-01 -.464E+00   -.844E-03 -.679E-03 0.229E-01
   0.111E+02 0.949E+01 0.137E+04   -.111E+02 -.952E+01 -.137E+04   -.895E-02 0.539E-01 -.399E+00   0.427E-04 -.473E-03 0.225E-01
   -.595E+01 0.830E+01 0.139E+04   0.594E+01 -.829E+01 -.139E+04   0.317E-01 -.359E-01 -.428E+00   -.504E-03 -.546E-03 0.232E-01
   -.107E+01 -.570E+01 0.139E+04   0.107E+01 0.571E+01 -.139E+04   0.684E-02 -.156E-01 -.336E+00   -.105E-02 0.321E-03 0.233E-01
   0.165E+02 0.139E+01 0.138E+04   -.165E+02 -.141E+01 -.138E+04   -.259E-01 0.297E-01 -.450E+00   -.109E-02 -.548E-04 0.232E-01
   0.148E+02 0.155E+02 0.138E+04   -.148E+02 -.155E+02 -.138E+04   0.355E-01 0.355E-02 -.320E+00   -.137E-02 -.389E-03 0.232E-01
   0.124E+01 -.143E+02 0.138E+04   -.124E+01 0.143E+02 -.138E+04   -.164E-01 0.239E-01 -.530E+00   -.676E-03 0.793E-03 0.232E-01
   -.372E+01 -.724E+01 0.137E+04   0.372E+01 0.724E+01 -.137E+04   -.398E-02 -.234E-02 -.494E+00   0.186E-03 0.322E-03 0.230E-01
   0.846E+01 0.329E+01 0.137E+04   -.849E+01 -.325E+01 -.136E+04   0.489E-01 -.440E-01 -.369E+00   0.430E-03 -.197E-03 0.227E-01
   0.108E+02 -.295E+01 0.137E+04   -.108E+02 0.295E+01 -.137E+04   0.157E-02 -.522E-02 -.538E+00   -.205E-03 0.341E-04 0.231E-01
[...]
   -.111E+02 0.953E+02 -.265E+03   0.146E+02 -.102E+03 0.264E+03   -.350E+01 0.651E+01 0.974E+00   -.119E-03 -.118E-03 -.119E-02
   -.432E+02 -.106E+03 -.291E+03   0.462E+02 0.113E+03 0.291E+03   -.298E+01 -.694E+01 0.344E-01   0.933E-04 0.308E-03 -.114E-02
   0.559E+02 0.306E+02 -.286E+03   -.583E+02 -.338E+02 0.283E+03   0.243E+01 0.330E+01 0.339E+01   -.874E-04 0.830E-06 -.114E-02
   0.500E+02 -.539E+02 -.288E+03   -.520E+02 0.590E+02 0.286E+03   0.198E+01 -.506E+01 0.124E+01   -.987E-04 0.281E-04 -.116E-02
   0.482E+02 0.679E+01 -.283E+03   -.499E+02 -.806E+01 0.288E+03   0.169E+01 0.129E+01 -.501E+01   -.794E-04 0.219E-04 -.113E-02
   0.720E+02 0.268E+02 -.284E+03   -.789E+02 -.278E+02 0.281E+03   0.688E+01 0.106E+01 0.254E+01   -.132E-03 -.154E-03 -.118E-02
   -.871E+02 -.648E+01 -.300E+03   0.929E+02 0.666E+01 0.300E+03   -.577E+01 -.153E+00 -.322E+00   0.155E-03 -.530E-04 -.110E-02
   0.806E+02 0.204E+02 -.306E+03   -.863E+02 -.206E+02 0.306E+03   0.570E+01 0.180E+00 0.116E+00   -.105E-03 -.167E-03 -.112E-02
   -.270E+01 0.407E+02 -.289E+03   0.121E+01 -.432E+02 0.294E+03   0.154E+01 0.251E+01 -.456E+01   0.118E-04 0.305E-04 -.111E-02
   -.119E+02 0.485E+02 -.289E+03   0.112E+02 -.519E+02 0.285E+03   0.668E+00 0.341E+01 0.402E+01   0.286E-04 -.833E-05 -.106E-02
   -.780E+02 0.510E+01 -.289E+03   0.834E+02 -.421E+01 0.289E+03   -.549E+01 -.916E+00 -.291E+00   0.320E-04 -.218E-04 -.112E-02
   -.106E+02 0.850E+02 -.293E+03   0.142E+02 -.911E+02 0.291E+03   -.360E+01 0.612E+01 0.205E+01   -.923E-04 -.130E-04 -.109E-02
   0.918E+02 0.288E+02 -.295E+03   -.987E+02 -.288E+02 0.293E+03   0.697E+01 0.665E-01 0.235E+01   -.503E-05 -.108E-03 -.108E-02
   -.677E+02 -.498E+02 -.301E+03   0.705E+02 0.551E+02 0.301E+03   -.279E+01 -.533E+01 -.221E+00   0.142E-03 0.130E-04 -.109E-02
   0.424E+02 0.174E+02 0.280E+02   0.162E-11 -.117E-11 -.547E-10   -.424E+02 -.174E+02 -.304E+02   -.684E-03 -.233E-02 0.227E+01

 POSITION                                       TOTAL-FORCE (eV/Angst)
      0.00000      0.00000      0.00000        -0.005841     -0.007001     -0.071746
     -1.26233      2.18641      0.00000        -0.012268      0.001761     -0.084130
      1.26233      2.18641      0.00000         0.010181      0.011230     -0.079110
      2.52465      0.00000      0.00000         0.015256     -0.000965     -0.082889
     -2.52465      4.37282      0.00000        -0.004041      0.000680     -0.086970
     -3.78698      6.55923      0.00000        -0.002460      0.003246     -0.076591
     -1.26233      6.55923      0.00000         0.004279     -0.002563     -0.082194
     -0.00000      4.37282      0.00000         0.009745      0.012835     -0.078999
     -5.04930      8.74564      0.00000        -0.000395     -0.000213     -0.082668
     -6.31163     10.93206      0.00000        -0.000587     -0.011443     -0.085446
     -3.78698     10.93206      0.00000         0.005033      0.000249     -0.084333
     -2.52465      8.74564      0.00000        -0.007141      0.002588     -0.077471
      5.04930      0.00000      0.00000        -0.000794      0.002794     -0.074290
      3.78698      2.18641      0.00000         0.005349     -0.005425     -0.083620
      6.31163      2.18641      0.00000        -0.000582     -0.007801     -0.074405
      7.57395      0.00000      0.00000        -0.002523      0.008122     -0.078145
      2.52465      4.37282      0.00000        -0.006657      0.005998     -0.076765
      1.26233      6.55923      0.00000         0.001547     -0.006104     -0.074691
      3.78698      6.55923      0.00000        -0.004412     -0.000694     -0.072246
      5.04930      4.37282      0.00000        -0.005531     -0.000373     -0.079026
      0.00000      8.74564      0.00000         0.002122     -0.004157     -0.079093
     -1.26233     10.93206      0.00000        -0.009920      0.002700     -0.076885
      1.26233     10.93206      0.00000         0.006156      0.000348     -0.083256
      2.52465      8.74564      0.00000         0.002577      0.000219     -0.075926
     10.09860      0.00000      0.00000         0.000603      0.007378     -0.084480
      8.83628      2.18641      0.00000         0.003734     -0.001430     -0.079273
     11.36093      2.18641      0.00000        -0.008178     -0.004685     -0.080310
     12.62325      0.00000      0.00000        -0.009538     -0.002742     -0.074583
      7.57395      4.37282      0.00000         0.003641     -0.002165     -0.073295
      6.31163      6.55923      0.00000         0.000016      0.005297     -0.073418
      8.83628      6.55923      0.00000        -0.000998      0.003421     -0.069712
     10.09860      4.37282      0.00000         0.001756     -0.005258     -0.075453
      5.04930      8.74564      0.00000         0.003795      0.005783     -0.077773
      3.78698     10.93206      0.00000         0.004023     -0.003882     -0.076862
      6.31163     10.93206      0.00000        -0.006205     -0.010908     -0.073393
      7.57395      8.74564      0.00000        -0.002126      0.004275     -0.077445
      2.52468      1.45759      2.06142        -0.001325      0.003320      0.062234
      1.26235      3.64400      2.06142        -0.000619      0.006974      0.066513
     -1.26230      3.64400      2.06142         0.007058      0.000865      0.065953
      0.00003      1.45759      2.06142         0.003004      0.006310      0.072910
      0.00003      5.83042      2.06142        -0.003772      0.002611      0.081041
     -1.26230      8.01683      2.06142         0.008552      0.001251      0.077667
     -3.78695      8.01683      2.06142        -0.003539     -0.001400      0.079271
     -2.52462      5.83042      2.06142         0.006499     -0.000450      0.074827
     -2.52462     10.20324      2.06142         0.003671     -0.005348      0.060807
     -3.78695     12.38965      2.06142        -0.004695     -0.012120      0.052994
     -6.31160     12.38965      2.06142         0.002092      0.001703      0.071426
     -5.04927     10.20324      2.06142        -0.004429     -0.001997      0.073465
      7.57398      1.45759      2.06142         0.006026      0.012098      0.079451
      6.31165      3.64400      2.06142         0.002042      0.011805      0.109416
      3.78700      3.64400      2.06142         0.002091     -0.002646      0.066851
      5.04933      1.45759      2.06142        -0.007558      0.018298      0.067469
      5.04933      5.83042      2.06142         0.022258     -0.026720      0.104783
      3.78700      8.01683      2.06142         0.006749      0.000504      0.077517
      1.26235      8.01683      2.06142        -0.018632      0.016520      0.091763
      2.52468      5.83042      2.06142         0.004466     -0.015910      0.089413
      2.52468     10.20324      2.06142        -0.016999      0.004543      0.082255
      1.26235     12.38965      2.06142        -0.002176     -0.003414      0.080401
     -1.26230     12.38965      2.06142         0.019387     -0.012904      0.084837
      0.00003     10.20324      2.06142         0.010924     -0.009013      0.090738
[...]
     -1.03732      6.88864      9.61287         0.006557      0.001505      0.002652
      0.41443      6.03599      9.78106         0.010336     -0.013228     -0.006630
      4.58809     10.20248      9.44100         0.002843      0.030591      0.002265
     -2.03697      8.63709      8.81778         0.001318      0.014337      0.009713
     -1.92061     10.34373      9.27795        -0.004052      0.017041     -0.002869
     -1.88207      9.07195     10.53545        -0.011197     -0.001925      0.010739
      3.91772      6.87942      8.82471         0.003003     -0.002370      0.002885
      8.87289      4.72406      9.33781         0.011568      0.004523     -0.001496
      3.92791      4.61204      9.09288        -0.012517      0.001861      0.001500
      7.59282      1.66885     10.44087         0.009762      0.005510     -0.012731
      7.75302      1.46969      8.67930        -0.006622     -0.009015     -0.012548
      8.99306      2.37188      9.57483         0.000258      0.004354     -0.003453
      5.55355      1.39667      9.00945         0.003253      0.000519     -0.002182
      4.08701      2.23384      8.96478         0.009216     -0.003058      0.000296
      7.60860      6.86862      9.23372        -0.002831      0.000689      0.005051
    total drift:                                0.014986     -0.024731     -0.141213

  FREE ENERGIE OF THE ION-ELECTRON SYSTEM (eV)
  free  energy   TOTEN  =      -759.49331315 eV

  energy  without entropy=     -759.44478999  energy(sigma->0) =     -759.46905157

[...]

  free energy =  -0.745929109559E+03  energy without entropy=  -0.745880588000E+03

[...]

 d Force = 0.1361414E-03[-0.793E-04, 0.352E-03]  d Energy = 0.1344956E-03 0.165E-05
 d Force =-0.1340494E+00[-0.135E+00,-0.133E+00]  d Ewald  =-0.1340495E+00 0.129E-06

 Steepest descent step on ions:
 trial-energy change:   -0.000134  1 .order   -0.000136   -0.000352    0.000079
  (g-gl).g = 0.352E-03      g.g   = 0.352E-03  gl.gl    = 0.000E+00
 g(Force)  = 0.352E-03   g(Stress)= 0.000E+00 ortho     = 0.000E+00
 gamma     =   0.00000
 trial     =   1.00000
 opt step  =   0.81593  (harmonic =   0.81593) maximal distance =0.00058112
 next E    =  -759.493457   (d E  =  -0.00014)

[...]

 d Force = 0.8825379E-05[ 0.305E-05, 0.146E-04]  d Energy = 0.1223395E-04-0.341E-05
 d Force = 0.2481972E-01[ 0.248E-01, 0.249E-01]  d Ewald  = 0.2481971E-01 0.361E-08

[...]

 d Force = 0.2490319E-06[-0.111E-06, 0.609E-06]  d Energy = 0.1787954E-05-0.154E-05
 d Force = 0.4944824E-02[ 0.494E-02, 0.495E-02]  d Ewald  = 0.4944827E-02-0.314E-08

[...]

 eigenvalue-minimisations  :  5935
 total energy-change (2. order) :-0.7309427E-06  (-0.2416111E-06)
 number of electron    1687.9999187 magnetization
 augmentation part     1013.5290745 magnetization

[...]

 eigenvalues of (default mixing * dielectric matrix)
  average eigenvalue GAMMA=   1.0080
  1.8922  0.9280  0.2037

[...]

--------------------------------------- Iteration      5(   5)  ---------------------------------------

 eigenvalue-minimisations  :  5918
 total energy-change (2. order) : 0.1587032E-05  (-0.1551107E-06)
 number of electron    1687.9999187 magnetization
 augmentation part     1013.5290745 magnetization

 DIPCOR: dipole corrections for dipol
 direction  3 min pos   155,
 dipolmoment           0.000000      0.000000     -0.505215 electrons x Angstroem
 Tr[quadrupol]    -67729.707529

 energy correction for charged system         0.000000 eV
 dipol+quadrupol energy correction           -0.005512 eV
 added-field ion interaction        -17.548095 eV  (added to PSCEN)

  free energy =  -0.745929176870E+03  energy without entropy=  -0.745880646348E+03

------------------------ aborting loop because EDIFF is reached ----------------------------------------

  Number of pair interactions contributing to vdW energy: 1045205
  Edisp (eV):  -13.56432

  FORCE on cell =-STRESS in cart. coord.  units (eV):
  Direction    XX          YY          ZZ          XY          YZ          ZX
  Alpha Z  4023.89447  4023.89447  4023.89447
  Ewald  682970.33021683210.03277************ -1463.74831  -236.51656    75.81104
  Hartree737254.94291737565.54758************ -1379.17080  -131.77004    -1.45880
  E(xc)   -9648.25214 -9648.85504 -9674.92611     0.03009    -0.49224     0.49602
  Local  ************************************  2851.92920   361.35905   -55.79398
  n-local -3222.08631 -3220.82320 -3315.54126    -0.64405     0.09252    -0.14433
  augment 13617.91036 13619.16900 13686.86257    -0.62963    -0.04392    -0.39604
  Kinetic 14475.64329 14496.51455 14797.16155    -8.04124     7.56950   -18.74549
  Fock        0.00000     0.00000     0.00000     0.00000     0.00000     0.00000
  vdW       -17.29627   -17.28274   -14.97507     0.10166    -0.04840     0.03364
  Total      11.30224    11.01525    -5.58078    -0.17310     0.14989    -0.19794
  in kB       4.30162     4.19239    -2.12404    -0.06588     0.05705    -0.07534

  FREE ENERGIE OF THE ION-ELECTRON SYSTEM (eV)
  free  energy   TOTEN  =      -759.49349886 eV

  energy  without entropy=     -759.44496834  energy(sigma->0) =     -759.46923360

 d Force = 0.3610432E-04[ 0.101E-04, 0.621E-04]  d Energy = 0.3719316E-04-0.109E-05
 d Force =-0.8527184E+00[-0.853E+00,-0.853E+00]  d Ewald  =-0.8527180E+00-0.421E-06

 Conjugate gradient step on ions:
 trial-energy change:   -0.000037  1 .order   -0.000036   -0.000062   -0.000010
  (g-gl).g = 0.614E-04      g.g   = 0.644E-04  gl.gl    = 0.352E-03
 g(Force)  = 0.644E-04   g(Stress)= 0.000E+00 ortho     = 0.301E-05
 gamma     =   0.17466
 trial     =   0.95584
 opt step  =   1.14216  (harmonic =   1.14216) maximal distance =0.00040146
 next E    =  -759.493499   (d E  =  -0.00004)

 reached required accuracy - stopping structural energy minimisation