 vasp.5.4.4.18Apr17-6-g9f103f2a35 (build Jun 30 2017 19:19:18) complex

 executed on         MareNostrum4 date 2022.04.05  13:06:56

 INCAR:
 POTCAR:    PAW_PBE Cu 22Jun2005
 POTCAR:    PAW_PBE O 08Apr2002
 POTCAR:    PAW_PBE C 08Apr2002
 POTCAR:    PAW_PBE N 08Apr2002
 POTCAR:    PAW_PBE H 15Jun2001

 POTCAR:    PAW_PBE Cu 22Jun2005

 POTCAR:    PAW_PBE O 08Apr2002

[...]

 POTCAR:    PAW_PBE N 08Apr2002

 POTCAR:    PAW_PBE H 15Jun2001

 Optimization of the real space projectors (new method)

 maximal supplied QI-value         = 16.25
 optimisation between [QCUT,QGAM] = [ 10.73, 21.61] = [ 32.22,130.83] Ry
 Optimized for a Real-space Cutoff    1.42 Angstroem

   l    n(q)    QCUT    max X(q) W(low)/X(q) W(high)/X(q)  e(spline)
   2      8    10.726     4.610    0.15E-03    0.25E-03    0.14E-06
   2      8    10.726     8.522    0.25E-03    0.43E-03    0.27E-06
   0      9    10.726    51.609    0.94E-04    0.10E-03    0.12E-06
   0      9    10.726    27.747    0.85E-04    0.96E-04    0.11E-06
   1      9    10.726    20.408    0.25E-03    0.14E-03    0.12E-06
   1      9    10.726    13.425    0.22E-03    0.13E-03    0.11E-06
 Optimization of the real space projectors (new method)

[...]

   l    n(q)    QCUT    max X(q) W(low)/X(q) W(high)/X(q)  e(spline)
   0      8    10.807    79.467    0.34E-03    0.68E-03    0.21E-06
   0      8    10.807    66.151    0.34E-03    0.67E-03    0.21E-06
   1      7    10.807    14.030    0.45E-03    0.13E-02    0.11E-05
   1      7    10.807     9.831    0.48E-03    0.13E-02    0.11E-05
 Optimization of the real space projectors (new method)

 maximal supplied QI-value         = 34.20
 optimisation between [QCUT,QGAM] = [ 10.60, 21.55] = [ 31.48,130.03] Ry
 Optimized for a Real-space Cutoff    1.23 Angstroem

   l    n(q)    QCUT    max X(q) W(low)/X(q) W(high)/X(q)  e(spline)
   0      8    10.603    19.460    0.37E-03    0.59E-03    0.23E-06
   0      8    10.603    12.209    0.35E-03    0.56E-03    0.22E-06
   1      7    10.603     4.655    0.70E-04    0.28E-03    0.29E-06
  PAW_PBE Cu 22Jun2005                  :
  PAW_PBE O 08Apr2002                   :
  PAW_PBE C 08Apr2002                   :
  PAW_PBE N 08Apr2002                   :
  PAW_PBE H 15Jun2001                   :

 POSCAR: Cu  O  C  N  H
  positions in cartesian coordinates
 exchange correlation table for  LEXCH =        8
   RHO(1)=    0.500       N(1)  =     2000
   RHO(2)=  100.500       N(2)  =     4000

 ion  position               nearest neighbor table
   1  0.000  0.000  0.000-   2 2.52   3 2.52   4 2.52  28 2.52  10 2.52  35 2.52  70 2.52  40 2.52
                            47 2.52
   2  0.000  0.167  0.000-   3 2.52   1 2.52   8 2.52  28 2.52   5 2.52  27 2.52  39 2.52  61 2.52
                            40 2.52
   3  0.167  0.167  0.000-   2 2.52   1 2.52   8 2.52  14 2.52   4 2.52  17 2.52  38 2.52  40 2.52
                            37 2.52
   4  0.167  0.000  0.000-  10 2.52  14 2.52   1 2.52  13 2.52   3 2.52  11 2.52  47 2.52  37 2.52
                            46 2.52
   5  0.000  0.333  0.000-   6 2.52   8 2.52  32 2.52   7 2.52  27 2.52   2 2.52  62 2.52  44 2.52
                            39 2.52
   6  0.000  0.500  0.000-  12 2.52   5 2.52   7 2.52   9 2.52  32 2.52  31 2.52  43 2.52  65 2.52
                            44 2.52
   7  0.167  0.500  0.000-  18 2.52   8 2.52  21 2.52   6 2.52   5 2.52  12 2.52  42 2.52  44 2.52
                            41 2.52
   8  0.167  0.333  0.000-   7 2.52   2 2.52  18 2.52   3 2.52   5 2.52  17 2.52  39 2.52  41 2.52
                            38 2.52
   9  0.000  0.667  0.000-  10 2.52  12 2.52  36 2.52  31 2.52   6 2.52  11 2.52  66 2.52  48 2.52
                            43 2.52
  10  0.000  0.833  0.000-   4 2.52   9 2.52  11 2.52   1 2.52  36 2.52  35 2.52  47 2.52  69 2.52
                            48 2.52
  11  0.167  0.833  0.000-  22 2.52  13 2.52  12 2.52  10 2.52   4 2.52   9 2.52  46 2.52  48 2.52
                            45 2.52
  12  0.167  0.667  0.000-   6 2.52  11 2.52  22 2.52   9 2.52  21 2.52   7 2.52  43 2.52  45 2.52
                            42 2.52
  13  0.333  0.000  0.000-  15 2.52  22 2.52  11 2.52  16 2.52   4 2.52  14 2.52  46 2.52  52 2.52
                            59 2.52
  14  0.333  0.167  0.000-   4 2.52  17 2.52  15 2.52   3 2.52  13 2.52  20 2.52  37 2.52  51 2.52
                            52 2.52
  15  0.500  0.167  0.000-  13 2.52  20 2.52  14 2.52  26 2.52  16 2.52  29 2.52  50 2.52  52 2.52
                            49 2.52
  16  0.500  0.000  0.000-  26 2.52  25 2.52  13 2.52  23 2.52  15 2.52  22 2.52  59 2.52  49 2.52
                            58 2.52
  17  0.333  0.333  0.000-  14 2.52  20 2.52   8 2.52  19 2.52  18 2.52   3 2.52  38 2.52  56 2.52
                            51 2.52
  18  0.333  0.500  0.000-   7 2.52  21 2.52   8 2.52  17 2.52  24 2.52  19 2.52  41 2.52  55 2.52
                            56 2.52
  19  0.500  0.500  0.000-  30 2.52  33 2.52  20 2.52  17 2.52  24 2.52  18 2.52  54 2.52  56 2.52
                            53 2.52
  20  0.500  0.333  0.000-  19 2.52  30 2.52  15 2.52  29 2.52  17 2.52  14 2.52  51 2.52  53 2.52
                            50 2.52
  21  0.333  0.667  0.000-  18 2.52   7 2.52  24 2.52  12 2.52  23 2.52  22 2.52  42 2.52  60 2.52
                            55 2.52
  22  0.333  0.833  0.000-  11 2.52  13 2.52  12 2.52  16 2.52  21 2.52  23 2.52  45 2.52  59 2.52
                            60 2.52
  23  0.500  0.833  0.000-  34 2.52  25 2.52  24 2.52  16 2.52  21 2.52  22 2.52  58 2.52  60 2.52
                            57 2.52
  24  0.500  0.667  0.000-  23 2.52  34 2.52  33 2.52  21 2.52  18 2.52  19 2.52  55 2.52  57 2.52
                            54 2.52
  25  0.667  0.000  0.000-  23 2.52  27 2.52  34 2.52  16 2.52  28 2.52  26 2.52  58 2.52  64 2.52
                            71 2.52
  26  0.667  0.167  0.000-  16 2.52  29 2.52  27 2.52  15 2.52  25 2.52  32 2.52  49 2.52  63 2.52
                            64 2.52
  27  0.833  0.167  0.000-  25 2.52  32 2.52  26 2.52  28 2.52   5 2.52   2 2.52  62 2.52  64 2.52
                            61 2.52
  28  0.833  0.000  0.000-  35 2.52   1 2.52  25 2.52  27 2.52  34 2.52   2 2.52  71 2.52  61 2.52
                            70 2.52
  29  0.667  0.333  0.000-  31 2.52  26 2.52  20 2.52  32 2.52  30 2.52  15 2.52  50 2.52  68 2.52
                            63 2.52
  30  0.667  0.500  0.000-  19 2.52  20 2.52  33 2.52  31 2.52  29 2.52  36 2.52  53 2.52  67 2.52
                            68 2.52
  31  0.833  0.500  0.000-  36 2.52  29 2.52  30 2.52  32 2.52   9 2.52   6 2.52  66 2.52  68 2.52
                            65 2.52
  32  0.833  0.333  0.000-  27 2.52   5 2.52  29 2.52   6 2.52  31 2.52  26 2.52  63 2.52  65 2.52
                            62 2.52
  33  0.667  0.667  0.000-  19 2.52  30 2.52  35 2.52  24 2.52  36 2.52  34 2.52  54 2.52  72 2.52
                            67 2.52
  34  0.667  0.833  0.000-  23 2.52  25 2.52  24 2.52  35 2.52  28 2.52  33 2.52  57 2.52  71 2.52
                            72 2.52
  35  0.833  0.833  0.000-  28 2.52  33 2.52  34 2.52   1 2.52  36 2.52  10 2.52  70 2.52  72 2.52
                            69 2.52
  36  0.833  0.667  0.000-  31 2.52   9 2.52  33 2.52  30 2.52  10 2.52  35 2.52  67 2.52  69 2.52
                            66 2.52
  37  0.222  0.111  0.097-  75 2.50  76 2.50  74 2.50  51 2.52  52 2.52  38 2.52  46 2.52  40 2.52
                            47 2.52  14 2.52   4 2.52   3 2.52
  38  0.222  0.278  0.097-  76 2.50  73 2.50  79 2.50  37 2.52  51 2.52  40 2.52  56 2.52  39 2.52
                            41 2.52   3 2.52  17 2.52   8 2.52
  39  0.056  0.278  0.097-  73 2.50 100 2.50  78 2.50  40 2.52  61 2.52  62 2.52  38 2.52  41 2.52
                            44 2.52   2 2.52   8 2.52   5 2.52
  40  0.056  0.111  0.097-  74 2.50  99 2.50  73 2.50  39 2.52  61 2.52  38 2.52  70 2.52  37 2.52
                            47 2.52   3 2.52   1 2.52   2 2.52
  41  0.222  0.444  0.097-  79 2.50  80 2.50  78 2.50  55 2.52  56 2.52  42 2.52  38 2.52  44 2.52
                            39 2.52  18 2.52   8 2.52   7 2.52
  42  0.222  0.611  0.097-  80 2.50  77 2.50  83 2.50  41 2.52  55 2.52  44 2.52  60 2.52  43 2.52
                            45 2.52   7 2.52  21 2.52  12 2.52
  43  0.056  0.611  0.097-  77 2.50 104 2.50  82 2.50  44 2.52  65 2.52  66 2.52  42 2.52  48 2.52
                            45 2.52   6 2.52  12 2.52   9 2.52
  44  0.056  0.444  0.097-  78 2.50 103 2.50  77 2.50  43 2.52  65 2.52  42 2.52  62 2.52  41 2.52
                            39 2.52   7 2.52   5 2.52   6 2.52
  45  0.222  0.778  0.097-  83 2.50  84 2.50  82 2.50  59 2.52  60 2.52  46 2.52  42 2.52  48 2.52
                            43 2.52  22 2.52  12 2.52  11 2.52
  46  0.222  0.944  0.097-  84 2.50  81 2.50  75 2.50  45 2.52  59 2.52  48 2.52  52 2.52  47 2.52
                            37 2.52  11 2.52  13 2.52   4 2.52
  47  0.056  0.944  0.097-  81 2.50 108 2.50  74 2.50  69 2.52  48 2.52  70 2.52  46 2.52  40 2.52
                            37 2.52  10 2.52   4 2.52   1 2.52
  48  0.056  0.778  0.097-  82 2.50 107 2.50  81 2.50  47 2.52  69 2.52  46 2.52  66 2.52  45 2.52
                            43 2.52  11 2.52   9 2.52  10 2.52
  49  0.556  0.111  0.097-  87 2.50  88 2.50  86 2.50  63 2.52  64 2.52  50 2.52  58 2.52  52 2.52
                            59 2.52  26 2.52  16 2.52  15 2.52
  50  0.556  0.278  0.097-  88 2.50  85 2.50  91 2.50  49 2.52  63 2.52  52 2.52  68 2.52  51 2.52
                            53 2.52  15 2.52  29 2.52  20 2.52
  51  0.389  0.278  0.097-  85 2.50  76 2.50  90 2.50  37 2.52  52 2.52  38 2.52  50 2.52  56 2.52
                            53 2.52  14 2.52  20 2.52  17 2.52
  52  0.389  0.111  0.097-  86 2.50  75 2.50  85 2.50  51 2.52  37 2.52  50 2.52  46 2.52  49 2.52
                            59 2.52  15 2.52  13 2.52  14 2.52
  53  0.556  0.444  0.097-  91 2.50  92 2.50  90 2.50  67 2.52  68 2.52  54 2.52  50 2.52  56 2.52
                            51 2.52  30 2.52  20 2.52  19 2.52
  54  0.556  0.611  0.097-  92 2.50  89 2.50  95 2.50  53 2.52  67 2.52  56 2.52  72 2.52  55 2.52
                            57 2.52  19 2.52  33 2.52  24 2.52
  55  0.389  0.611  0.097-  89 2.50  80 2.50  94 2.50  41 2.52  56 2.52  42 2.52  54 2.52  60 2.52
                            57 2.52  18 2.52  24 2.52  21 2.52
  56  0.389  0.444  0.097-  90 2.50  79 2.50  89 2.50  55 2.52  41 2.52  54 2.52  38 2.52  53 2.52
                            51 2.52  19 2.52  17 2.52  18 2.52
  57  0.556  0.778  0.097-  95 2.50  96 2.50  94 2.50  71 2.52  72 2.52  58 2.52  54 2.52  60 2.52
                            55 2.52  34 2.52  24 2.52  23 2.52
  58  0.556  0.944  0.097-  96 2.50  93 2.50  87 2.50  57 2.52  71 2.52  60 2.52  64 2.52  59 2.52
                            49 2.52  23 2.52  25 2.52  16 2.52
  59  0.389  0.944  0.097-  93 2.50  84 2.50  86 2.50  45 2.52  60 2.52  46 2.52  58 2.52  52 2.52
                            49 2.52  22 2.52  16 2.52  13 2.52
  60  0.389  0.778  0.097-  94 2.50  83 2.50  93 2.50  59 2.52  45 2.52  58 2.52  42 2.52  57 2.52
[...]
   -.809E+01 0.160E+02 0.135E+04   0.802E+01 -.159E+02 -.135E+04   0.626E-01 -.632E-01 -.730E+00   -.242E-03 0.909E-03 -.284E-02
   -.116E+02 0.207E+02 0.138E+04   0.117E+02 -.207E+02 -.138E+04   -.677E-01 0.324E-01 -.778E+00   -.377E-03 0.817E-03 -.269E-02
   0.118E+02 0.298E+02 0.137E+04   -.118E+02 -.299E+02 -.137E+04   0.719E-01 0.284E-01 -.484E+00   0.324E-03 0.779E-03 -.261E-02
   0.714E+01 0.282E+02 0.135E+04   -.717E+01 -.283E+02 -.135E+04   0.302E-01 0.953E-01 -.514E+00   -.530E-04 0.118E-02 -.277E-02
   -.884E+01 0.186E+01 0.140E+04   0.885E+01 -.183E+01 -.139E+04   -.477E-02 -.504E-01 -.683E+00   -.139E-04 -.161E-03 -.262E-02
   -.274E+01 -.200E+02 0.139E+04   0.274E+01 0.200E+02 -.139E+04   -.117E-01 -.470E-01 -.610E+00   0.443E-03 -.894E-03 -.265E-02
   0.229E+02 -.101E+02 0.138E+04   -.229E+02 0.102E+02 -.138E+04   -.186E-01 -.315E-01 -.823E+00   0.869E-03 -.757E-03 -.288E-02
   0.189E+02 0.110E+02 0.139E+04   -.189E+02 -.110E+02 -.139E+04   -.183E-02 -.401E-01 -.699E+00   0.765E-03 -.237E-03 -.265E-02
   0.252E+01 -.261E+02 0.136E+04   -.253E+01 0.262E+02 -.136E+04   0.945E-02 -.309E-01 -.678E+00   0.578E-03 -.699E-03 -.291E-02
   0.101E-01 -.890E+01 0.134E+04   0.409E-02 0.887E+01 -.134E+04   -.120E-01 0.219E-01 -.473E+00   0.123E-03 0.266E-03 -.294E-02
   0.106E+02 0.650E+01 0.133E+04   -.106E+02 -.653E+01 -.133E+04   0.294E-01 0.262E-01 -.573E+00   0.524E-04 0.703E-03 -.308E-02
   0.192E+02 -.131E+02 0.135E+04   -.193E+02 0.131E+02 -.135E+04   0.110E-01 -.325E-01 -.711E+00   0.456E-03 -.269E-03 -.309E-02
[...]
   -.846E+02 -.258E+03 -.171E+04   0.854E+02 0.263E+03 0.173E+04   -.107E+01 -.603E+01 -.150E+02   0.860E-04 -.596E-04 0.690E-03
   0.871E+02 0.156E+03 -.174E+04   -.897E+02 -.156E+03 0.175E+04   0.270E+01 0.776E+00 -.795E+00   -.880E-04 0.149E-03 0.638E-03
   0.832E+02 0.308E+02 -.339E+03   -.888E+02 -.324E+02 0.339E+03   0.562E+01 0.155E+01 -.922E-01   0.706E-04 0.214E-04 0.120E-03
   0.418E+02 0.807E+02 -.343E+03   -.435E+02 -.863E+02 0.343E+03   0.165E+01 0.555E+01 0.841E-01   0.713E-04 0.398E-04 0.106E-03
   -.674E+02 -.438E+02 -.344E+03   0.732E+02 0.453E+02 0.344E+03   -.580E+01 -.140E+01 0.182E+00   -.433E-04 -.733E-04 0.902E-04
   0.354E+02 -.862E+02 -.330E+03   -.404E+02 0.917E+02 0.327E+03   0.489E+01 -.519E+01 0.237E+01   0.446E-04 -.109E-03 0.154E-03
   -.825E+02 -.518E+02 -.333E+03   0.899E+02 0.536E+02 0.331E+03   -.708E+01 -.163E+01 0.192E+01   -.650E-04 -.862E-04 0.130E-03
   0.441E+02 0.102E+03 -.349E+03   -.469E+02 -.110E+03 0.349E+03   0.272E+01 0.717E+01 -.200E+00   0.257E-04 0.153E-03 0.915E-04
   0.198E+02 -.529E+02 -.331E+03   -.191E+02 0.563E+02 0.336E+03   -.706E+00 -.333E+01 -.429E+01   0.580E-04 -.115E-03 0.311E-04
   0.795E+02 0.707E+01 -.334E+03   -.846E+02 -.929E+01 0.334E+03   0.514E+01 0.222E+01 -.545E+00   0.152E-03 -.171E-04 0.127E-03
   0.276E+02 -.520E+02 -.336E+03   -.277E+02 0.556E+02 0.332E+03   0.161E+00 -.314E+01 0.404E+01   0.801E-04 -.669E-04 0.234E-03
   -.375E+02 0.700E+02 -.358E+03   0.389E+02 -.758E+02 0.359E+03   -.142E+01 0.572E+01 -.198E+00   -.637E-04 0.907E-04 0.116E-03
   -.669E+02 -.416E+01 -.361E+03   0.713E+02 0.632E+01 0.360E+03   -.244E+01 -.198E+01 0.324E+01   -.525E-04 0.178E-04 0.185E-03
   -.613E+02 -.142E+02 -.358E+03   0.638E+02 0.171E+02 0.362E+03   -.252E+01 -.273E+01 -.444E+01   -.113E-03 0.520E-05 0.641E-04
   0.712E+01 0.137E+02 -.139E+02   0.981E-12 -.227E-11 -.109E-09   -.713E+01 -.137E+02 0.141E+02   0.453E-03 0.423E-03 -.289E+00

 POSITION                                       TOTAL-FORCE (eV/Angst)
      0.00000      0.00000      0.00000         0.005157      0.000831     -0.098599
     -1.26233      2.18641      0.00000        -0.004979      0.021218     -0.097024
      1.26233      2.18641      0.00000         0.016193      0.012641     -0.094205
      2.52465      0.00000      0.00000         0.015980      0.015289     -0.093327
     -2.52465      4.37282      0.00000         0.003586      0.010498     -0.085514
     -3.78698      6.55923      0.00000         0.011496      0.001716     -0.088305
     -1.26233      6.55923      0.00000        -0.010354     -0.003247     -0.098194
     -0.00000      4.37282      0.00000        -0.000472      0.002009     -0.100255
     -5.04930      8.74564      0.00000         0.002829     -0.008167     -0.088781
     -6.31163     10.93206      0.00000         0.000373     -0.013105     -0.101738
     -3.78698     10.93206      0.00000         0.003578     -0.003004     -0.112618
     -2.52465      8.74564      0.00000        -0.006835     -0.013273     -0.093069
      5.04930      0.00000      0.00000        -0.003116      0.013678     -0.091410
      3.78698      2.18641      0.00000         0.000047     -0.004121     -0.085376
      6.31163      2.18641      0.00000        -0.009928     -0.001351     -0.096955
      7.57395      0.00000      0.00000        -0.003723     -0.006209     -0.096891
      2.52465      4.37282      0.00000         0.003513     -0.000629     -0.082873
      1.26233      6.55923      0.00000         0.006754     -0.003757     -0.098553
      3.78698      6.55923      0.00000        -0.003486     -0.001293     -0.088814
      5.04930      4.37282      0.00000        -0.006230     -0.003758     -0.102909
      0.00000      8.74564      0.00000         0.006207      0.001355     -0.096927
     -1.26233     10.93206      0.00000         0.009538      0.005606     -0.088490
      1.26233     10.93206      0.00000         0.000368     -0.001602     -0.094365
      2.52465      8.74564      0.00000         0.000337      0.006458     -0.108543
     10.09860      0.00000      0.00000         0.003160     -0.013704     -0.092427
      8.83628      2.18641      0.00000        -0.004996     -0.000642     -0.098455
     11.36093      2.18641      0.00000         0.001345     -0.002089     -0.100038
     12.62325      0.00000      0.00000        -0.016003     -0.013233     -0.095205
      7.57395      4.37282      0.00000        -0.002370      0.005001     -0.098247
      6.31163      6.55923      0.00000         0.003964      0.004282     -0.092156
      8.83628      6.55923      0.00000        -0.005790      0.002774     -0.098272
     10.09860      4.37282      0.00000         0.002197      0.008814     -0.101466
      5.04930      8.74564      0.00000         0.005014      0.000781     -0.082143
      3.78698     10.93206      0.00000        -0.002420     -0.000651     -0.089594
      6.31163     10.93206      0.00000        -0.013021     -0.017864     -0.094921
      7.57395      8.74564      0.00000        -0.007513     -0.001002     -0.084159
      2.52468      1.45759      2.06142         0.008633      0.008428     -0.132541
      1.26235      3.64400      2.06142         0.004145      0.010630     -0.128709
     -1.26230      3.64400      2.06142         0.008841      0.001626     -0.141762
      0.00003      1.45759      2.06142         0.003499      0.007045     -0.151847
      0.00003      5.83042      2.06142        -0.004933      0.000444     -0.140713
     -1.26230      8.01683      2.06142        -0.004487     -0.009271     -0.141156
     -3.78695      8.01683      2.06142         0.007644      0.012376     -0.143271
     -2.52462      5.83042      2.06142         0.014298      0.011129     -0.127839
     -2.52462     10.20324      2.06142        -0.001877     -0.004670     -0.148293
     -3.78695     12.38965      2.06142         0.004429     -0.008380     -0.163178
     -6.31160     12.38965      2.06142         0.003208     -0.006962     -0.162522
     -5.04927     10.20324      2.06142         0.003877     -0.003256     -0.164171
      7.57398      1.45759      2.06142        -0.005526      0.000478     -0.139441
      6.31165      3.64400      2.06142        -0.013632      0.002087     -0.150834
      3.78700      3.64400      2.06142         0.008085      0.015742     -0.116040
      5.04933      1.45759      2.06142         0.002729      0.012619     -0.124399
      5.04933      5.83042      2.06142         0.001993     -0.018027     -0.137935
      3.78700      8.01683      2.06142        -0.006212     -0.011067     -0.122553
      1.26235      8.01683      2.06142         0.005060     -0.005491     -0.147381
      2.52468      5.83042      2.06142        -0.002812     -0.015721     -0.156347
      2.52468     10.20324      2.06142        -0.001411      0.001962     -0.133841
      1.26235     12.38965      2.06142         0.002304     -0.002931     -0.118695
     -1.26230     12.38965      2.06142        -0.007615     -0.002862     -0.134326
      0.00003     10.20324      2.06142         0.005747     -0.004139     -0.150020
[...]
      7.87256      3.64748      8.38329        -0.793734     -0.627812      2.288726
      3.34721      9.59080      8.77144        -0.204590     -0.893532      0.702313
      4.55199      4.87087      8.58281         0.097783      0.105663      0.631810
      0.22077      6.25015      8.73107         0.025831     -0.001357      0.119786
      1.95895      4.48933      8.64312        -0.026941     -0.046251      0.150939
      5.01171      7.53604      8.60934        -0.016878      0.070170      0.202122
      2.68065     10.27729      8.43750        -0.209192      0.313452     -0.013567
      4.30177      9.79562      8.49728         0.310515      0.157561     -0.037588
      4.18790      3.92429      8.61342        -0.159732     -0.271651      0.021294
      0.69165      9.63035      9.66344         0.059327      0.094880     -0.036911
     -0.46232      8.50790      8.91074        -0.020272     -0.039493      0.009566
      0.50939      9.59048      7.89906         0.076572      0.467269     -0.091109
      8.12926      2.58313      8.40214         0.044444     -0.093420     -0.007807
      8.21565      4.10871      7.44709         1.955074      0.225025      1.797191
      8.33851      4.16983      9.22978         0.055756      0.178213     -0.068278
    total drift:                               -0.002812     -0.013496     -0.087188

  FREE ENERGIE OF THE ION-ELECTRON SYSTEM (eV)
  free  energy   TOTEN  =      -669.19482760 eV

  energy  without entropy=     -669.15759770  energy(sigma->0) =     -669.17621265

[...]

  free energy =  -0.656470079418E+03  energy without entropy=  -0.656435536843E+03

[...]

 d Force = 0.5485103E+00[ 0.378E+00, 0.719E+00]  d Energy = 0.5437396E+00 0.477E-02
 d Force =-0.2089871E+03[-0.211E+03,-0.207E+03]  d Ewald  =-0.2090088E+03 0.217E-01

 Steepest descent step on ions:
 trial-energy change:   -0.543740  1 .order   -0.548510   -0.718810   -0.378211
  (g-gl).g = 0.719E+00      g.g   = 0.719E+00  gl.gl    = 0.000E+00
 g(Force)  = 0.719E+00   g(Stress)= 0.000E+00 ortho     = 0.000E+00
 gamma     =   0.00000
 trial     =   1.00000
 opt step  =   2.38945  (harmonic =   2.11043) maximal distance =0.07914870
 next E    =  -669.988522   (d E  =  -0.79369)

[...]

 d Force = 0.2469320E+00[-0.316E-01, 0.526E+00]  d Energy = 0.2393981E+00 0.753E-02
 d Force =-0.2958678E+03[-0.299E+03,-0.293E+03]  d Ewald  =-0.2959140E+03 0.462E-01

[...]

 Conjugate gradient step on ions:
 trial-energy change:   -0.330268  1 .order   -0.330307   -0.458276   -0.202337
  (g-gl).g = 0.698E+00      g.g   = 0.676E+00  gl.gl    = 0.719E+00
 g(Force)  = 0.676E+00   g(Stress)= 0.000E+00 ortho     =-0.228E-01
 gamma     =   0.97149
 trial     =   0.70135
 opt step  =   1.25581  (harmonic =   1.25581) maximal distance =0.05101395
 next E    =  -670.388253   (d E  =  -0.41029)

[...]

 d Force = 0.9550592E-01[ 0.744E-01, 0.117E+00]  d Energy = 0.9526953E-01 0.236E-03
 d Force = 0.9924205E+02[ 0.987E+02, 0.998E+02]  d Ewald  = 0.9924107E+02 0.981E-03

[...]

 d Force = 0.6695266E-01[-0.121E-01, 0.146E+00]  d Energy = 0.6599084E-01 0.962E-03
 d Force = 0.1914136E+03[ 0.189E+03, 0.194E+03]  d Ewald  = 0.1914064E+03 0.717E-02

[...]

 Conjugate gradient step on ions:
 trial-energy change:   -0.073577  1 .order   -0.073499   -0.089193   -0.057804
  (g-gl).g = 0.910E-01      g.g   = 0.899E-01  gl.gl    = 0.950E-01
 g(Force)  = 0.899E-01   g(Stress)= 0.000E+00 ortho     = 0.423E-03
 gamma     =   0.95869
 trial     =   0.98745
 opt step  =   2.80585  (harmonic =   2.80585) maximal distance =0.11748299
 next E    =  -671.555383   (d E  =  -0.12672)

[...]

 d Force = 0.6436771E-02[ 0.408E-02, 0.880E-02]  d Energy = 0.6385694E-02 0.511E-04
 d Force =-0.1301382E+02[-0.130E+02,-0.130E+02]  d Ewald  =-0.1301382E+02-0.119E-05

[...]

 d Force = 0.1687555E-02[-0.670E-03, 0.405E-02]  d Energy = 0.1636425E-02 0.511E-04
 d Force =-0.1298457E+02[-0.130E+02,-0.129E+02]  d Ewald  =-0.1298457E+02-0.283E-05

[...]

 d Force = 0.1272236E-04[-0.103E-05, 0.265E-04]  d Energy =-0.1367100E-05 0.141E-04
 d Force = 0.6905547E+01[ 0.691E+01, 0.691E+01]  d Ewald  = 0.6905547E+01 0.263E-06

[...]

 Conjugate gradient step on ions:
 trial-energy change:   -0.000076  1 .order   -0.000090   -0.000135   -0.000046
  (g-gl).g = 0.121E-03      g.g   = 0.129E-03  gl.gl    = 0.167E-03
 g(Force)  = 0.129E-03   g(Stress)= 0.000E+00 ortho     = 0.178E-05
 gamma     =   0.72098
 trial     =   1.04070
 opt step  =   1.57261  (harmonic =   1.57261) maximal distance =0.00433441
 next E    =  -672.173386   (d E  =  -0.00010)

[...]

 d Force = 0.3250948E-05[-0.246E-05, 0.897E-05]  d Energy =-0.1316677E-05 0.457E-05
 d Force = 0.2046953E+01[ 0.205E+01, 0.205E+01]  d Ewald  = 0.2046953E+01-0.710E-07

[...]

 d Force = 0.1953563E-04[-0.452E-05, 0.436E-04]  d Energy = 0.5024812E-05 0.145E-04
 d Force = 0.5614332E+01[ 0.561E+01, 0.561E+01]  d Ewald  = 0.5614332E+01 0.362E-07

[...]

 eigenvalue-minimisations  :  6260
 total energy-change (2. order) :-0.2074215E-04  (-0.4669708E-05)
 number of electron    1653.9999285 magnetization
 augmentation part     1012.9761924 magnetization

[...]

 eigenvalues of (default mixing * dielectric matrix)
  average eigenvalue GAMMA=   0.9852
  2.0320  0.7348  0.1887

[...]

--------------------------------------- Iteration    194(   5)  ---------------------------------------

 eigenvalue-minimisations  :  5562
 total energy-change (2. order) : 0.1150969E-05  (-0.7674969E-06)
 number of electron    1653.9999285 magnetization
 augmentation part     1012.9768421 magnetization

 DIPCOR: dipole corrections for dipol
 direction  3 min pos   154,
 dipolmoment           0.000000      0.000000     -0.497603 electrons x Angstroem
 Tr[quadrupol]    -66504.442176

 energy correction for charged system         0.000000 eV
 dipol+quadrupol energy correction           -0.005347 eV
 added-field ion interaction        -17.939401 eV  (added to PSCEN)

  free energy =  -0.659530649118E+03  energy without entropy=  -0.659482121449E+03

------------------------ aborting loop because EDIFF is reached ----------------------------------------

  Number of pair interactions contributing to vdW energy:  899502
  Edisp (eV):  -12.64310

  FORCE on cell =-STRESS in cart. coord.  units (eV):
  Direction    XX          YY          ZZ          XY          YZ          ZX
  Alpha Z  3880.85270  3880.85270  3880.85270
  Ewald  695332.59721694891.20997************ -1231.70907   -26.19275   201.49512
  Hartree749098.02757748681.01703************ -1110.39346   -19.10864   148.55521
  E(xc)   -9527.55026 -9527.39057 -9551.14613    -0.07212    -0.01353     0.20951
  Local  ************************************  2349.89957    42.17664  -344.92314
  n-local -3178.27444 -3181.88024 -3272.29450    -2.56161    -0.13290     0.28670
  augment 13624.39430 13624.10285 13693.33870    -0.13580     0.24328    -0.19183
  Kinetic 14013.96698 14008.60160 14240.26636    -5.11251     2.78066    -5.39236
  Fock        0.00000     0.00000     0.00000     0.00000     0.00000     0.00000
  vdW       -16.65730   -16.57954   -13.48065     0.14479     0.03388     0.02962
  Total      12.16448    11.14662    -4.50843     0.05980    -0.21335     0.06884
  in kB       4.62978     4.24239    -1.71590     0.02276    -0.08120     0.02620

  FREE ENERGIE OF THE ION-ELECTRON SYSTEM (eV)
  free  energy   TOTEN  =      -672.17375240 eV

  energy  without entropy=     -672.12522473  energy(sigma->0) =     -672.14948856

 d Force = 0.6546909E-04[ 0.414E-04, 0.896E-04]  d Energy = 0.5485486E-04 0.106E-04
 d Force = 0.4954774E+01[ 0.495E+01, 0.495E+01]  d Ewald  = 0.4954774E+01 0.472E-06

 Conjugate gradient step on ions:
 trial-energy change:   -0.000055  1 .order   -0.000065   -0.000090   -0.000041
  (g-gl).g = 0.701E-04      g.g   = 0.744E-04  gl.gl    = 0.111E-03
 g(Force)  = 0.744E-04   g(Stress)= 0.000E+00 ortho     =-0.495E-05
 gamma     =   0.63116
 trial     =   1.25620
 opt step  =   2.33318  (harmonic =   2.33318) maximal distance =0.00413050
 next E    =  -672.173781   (d E  =  -0.00008)

 reached required accuracy - stopping structural energy minimisation