 vasp.5.4.4.18Apr17-6-g9f103f2a35 (build Jun 30 2017 19:19:18) complex

 executed on         MareNostrum4 date 2022.04.12  11:03:59

 INCAR:
 POTCAR:    PAW_PBE Cu 22Jun2005
 POTCAR:    PAW_PBE C 08Apr2002
 POTCAR:    PAW_PBE N 08Apr2002
 POTCAR:    PAW_PBE H 15Jun2001

 POTCAR:    PAW_PBE Cu 22Jun2005

 POTCAR:    PAW_PBE C 08Apr2002

 POTCAR:    PAW_PBE N 08Apr2002

 POTCAR:    PAW_PBE H 15Jun2001

 Optimization of the real space projectors (new method)

 maximal supplied QI-value         = 16.25
 optimisation between [QCUT,QGAM] = [ 10.73, 21.61] = [ 32.22,130.83] Ry
 Optimized for a Real-space Cutoff    1.42 Angstroem

   l    n(q)    QCUT    max X(q) W(low)/X(q) W(high)/X(q)  e(spline)
   2      8    10.726     4.610    0.15E-03    0.25E-03    0.14E-06
   2      8    10.726     8.522    0.25E-03    0.43E-03    0.27E-06
   0      9    10.726    51.609    0.94E-04    0.10E-03    0.12E-06
   0      9    10.726    27.747    0.85E-04    0.96E-04    0.11E-06
   1      9    10.726    20.408    0.25E-03    0.14E-03    0.12E-06
   1      9    10.726    13.425    0.22E-03    0.13E-03    0.11E-06
 Optimization of the real space projectors (new method)

[...]

   l    n(q)    QCUT    max X(q) W(low)/X(q) W(high)/X(q)  e(spline)
   0      8    10.807    79.467    0.34E-03    0.68E-03    0.21E-06
   0      8    10.807    66.151    0.34E-03    0.67E-03    0.21E-06
   1      7    10.807    14.030    0.45E-03    0.13E-02    0.11E-05
   1      7    10.807     9.831    0.48E-03    0.13E-02    0.11E-05
 Optimization of the real space projectors (new method)

 maximal supplied QI-value         = 34.20
 optimisation between [QCUT,QGAM] = [ 10.60, 21.55] = [ 31.48,130.03] Ry
 Optimized for a Real-space Cutoff    1.23 Angstroem

   l    n(q)    QCUT    max X(q) W(low)/X(q) W(high)/X(q)  e(spline)
   0      8    10.603    19.460    0.37E-03    0.59E-03    0.23E-06
   0      8    10.603    12.209    0.35E-03    0.56E-03    0.22E-06
   1      7    10.603     4.655    0.70E-04    0.28E-03    0.29E-06
  PAW_PBE Cu 22Jun2005                  :
  PAW_PBE C 08Apr2002                   :
  PAW_PBE N 08Apr2002                   :
  PAW_PBE H 15Jun2001                   :

 POSCAR: Cu  C  N  H
  positions in direct lattice
  velocities in cartesian coordinates
 exchange correlation table for  LEXCH =        8
   RHO(1)=    0.500       N(1)  =     2000
   RHO(2)=  100.500       N(2)  =     4000

 ion  position               nearest neighbor table
   1  0.000  0.000  0.000-   2 2.52   3 2.52   4 2.52  28 2.52  10 2.52  35 2.52  70 2.52  40 2.52
                            47 2.52
   2  0.000  0.167  0.000-   3 2.52   1 2.52   8 2.52  28 2.52   5 2.52  27 2.52  39 2.52  61 2.52
                            40 2.52
   3  0.167  0.167  0.000-   2 2.52   1 2.52   8 2.52  14 2.52   4 2.52  17 2.52  38 2.52  40 2.52
                            37 2.52
   4  0.167  0.000  0.000-  10 2.52  14 2.52   1 2.52  13 2.52   3 2.52  11 2.52  47 2.52  37 2.52
                            46 2.52
   5  0.000  0.333  0.000-   6 2.52   8 2.52  32 2.52   7 2.52  27 2.52   2 2.52  62 2.52  44 2.52
                            39 2.52
   6  0.000  0.500  0.000-  12 2.52   5 2.52   7 2.52   9 2.52  32 2.52  31 2.52  43 2.52  65 2.52
                            44 2.52
   7  0.167  0.500  0.000-  18 2.52   8 2.52  21 2.52   6 2.52   5 2.52  12 2.52  42 2.52  44 2.52
                            41 2.52
   8  0.167  0.333  0.000-   7 2.52   2 2.52  18 2.52   3 2.52   5 2.52  17 2.52  39 2.52  41 2.52
                            38 2.52
   9  0.000  0.667  0.000-  10 2.52  12 2.52  36 2.52  31 2.52   6 2.52  11 2.52  66 2.52  48 2.52
                            43 2.52
  10  0.000  0.833  0.000-   4 2.52   9 2.52  11 2.52   1 2.52  36 2.52  35 2.52  47 2.52  69 2.52
                            48 2.52
  11  0.167  0.833  0.000-  22 2.52  13 2.52  12 2.52  10 2.52   4 2.52   9 2.52  46 2.52  48 2.52
                            45 2.52
  12  0.167  0.667  0.000-   6 2.52  11 2.52  22 2.52   9 2.52  21 2.52   7 2.52  43 2.52  45 2.52
                            42 2.52
  13  0.333  0.000  0.000-  15 2.52  22 2.52  11 2.52  16 2.52   4 2.52  14 2.52  46 2.52  52 2.52
                            59 2.52
  14  0.333  0.167  0.000-   4 2.52  17 2.52  15 2.52   3 2.52  13 2.52  20 2.52  37 2.52  51 2.52
                            52 2.52
  15  0.500  0.167  0.000-  13 2.52  20 2.52  14 2.52  26 2.52  16 2.52  29 2.52  50 2.52  52 2.52
                            49 2.52
  16  0.500  0.000  0.000-  26 2.52  25 2.52  13 2.52  23 2.52  15 2.52  22 2.52  59 2.52  49 2.52
                            58 2.52
  17  0.333  0.333  0.000-  14 2.52  20 2.52   8 2.52  19 2.52  18 2.52   3 2.52  38 2.52  56 2.52
                            51 2.52
  18  0.333  0.500  0.000-   7 2.52  21 2.52   8 2.52  17 2.52  24 2.52  19 2.52  41 2.52  55 2.52
                            56 2.52
  19  0.500  0.500  0.000-  30 2.52  33 2.52  20 2.52  17 2.52  24 2.52  18 2.52  54 2.52  56 2.52
                            53 2.52
  20  0.500  0.333  0.000-  19 2.52  30 2.52  15 2.52  29 2.52  17 2.52  14 2.52  51 2.52  53 2.52
                            50 2.52
  21  0.333  0.667  0.000-  18 2.52   7 2.52  24 2.52  12 2.52  23 2.52  22 2.52  42 2.52  60 2.52
                            55 2.52
  22  0.333  0.833  0.000-  11 2.52  13 2.52  12 2.52  16 2.52  21 2.52  23 2.52  45 2.52  59 2.52
                            60 2.52
  23  0.500  0.833  0.000-  34 2.52  25 2.52  24 2.52  16 2.52  21 2.52  22 2.52  58 2.52  60 2.52
                            57 2.52
  24  0.500  0.667  0.000-  23 2.52  34 2.52  33 2.52  21 2.52  18 2.52  19 2.52  55 2.52  57 2.52
                            54 2.52
  25  0.667  0.000  0.000-  23 2.52  27 2.52  34 2.52  16 2.52  28 2.52  26 2.52  58 2.52  64 2.52
                            71 2.52
  26  0.667  0.167  0.000-  16 2.52  29 2.52  27 2.52  15 2.52  25 2.52  32 2.52  49 2.52  63 2.52
                            64 2.52
  27  0.833  0.167  0.000-  25 2.52  32 2.52  26 2.52  28 2.52   5 2.52   2 2.52  62 2.52  64 2.52
                            61 2.52
  28  0.833  0.000  0.000-  35 2.52   1 2.52  25 2.52  27 2.52  34 2.52   2 2.52  71 2.52  61 2.52
                            70 2.52
  29  0.667  0.333  0.000-  31 2.52  26 2.52  20 2.52  32 2.52  30 2.52  15 2.52  50 2.52  68 2.52
                            63 2.52
  30  0.667  0.500  0.000-  19 2.52  20 2.52  33 2.52  31 2.52  29 2.52  36 2.52  53 2.52  67 2.52
                            68 2.52
  31  0.833  0.500  0.000-  36 2.52  29 2.52  30 2.52  32 2.52   9 2.52   6 2.52  66 2.52  68 2.52
                            65 2.52
  32  0.833  0.333  0.000-  27 2.52   5 2.52  29 2.52   6 2.52  31 2.52  26 2.52  63 2.52  65 2.52
                            62 2.52
  33  0.667  0.667  0.000-  19 2.52  30 2.52  35 2.52  24 2.52  36 2.52  34 2.52  54 2.52  72 2.52
                            67 2.52
  34  0.667  0.833  0.000-  23 2.52  25 2.52  24 2.52  35 2.52  28 2.52  33 2.52  57 2.52  71 2.52
                            72 2.52
  35  0.833  0.833  0.000-  28 2.52  33 2.52  34 2.52   1 2.52  36 2.52  10 2.52  70 2.52  72 2.52
                            69 2.52
  36  0.833  0.667  0.000-  31 2.52   9 2.52  33 2.52  30 2.52  10 2.52  35 2.52  67 2.52  69 2.52
                            66 2.52
  37  0.222  0.111  0.097-  51 2.52  52 2.52  38 2.52  46 2.52  40 2.52  47 2.52  14 2.52   4 2.52
                             3 2.52  76 2.54  74 2.54  75 2.54
  38  0.222  0.278  0.097-  37 2.52  51 2.52  40 2.52  56 2.52  39 2.52  41 2.52   3 2.52  17 2.52
                             8 2.52  73 2.54  76 2.54  79 2.55
  39  0.056  0.278  0.097-  40 2.52  61 2.52  62 2.52  38 2.52  41 2.52  44 2.52   2 2.52   8 2.52
                             5 2.52 100 2.54  78 2.54  73 2.54
  40  0.056  0.111  0.097-  39 2.52  61 2.52  38 2.52  70 2.52  37 2.52  47 2.52   3 2.52   1 2.52
                             2 2.52  99 2.54  73 2.54  74 2.54
  41  0.222  0.444  0.097-  55 2.52  56 2.52  42 2.52  38 2.52  44 2.52  39 2.52  18 2.52   8 2.52
                             7 2.52  78 2.54  80 2.55  79 2.55
  42  0.222  0.611  0.097-  41 2.52  55 2.52  44 2.52  60 2.52  43 2.52  45 2.52   7 2.52  21 2.52
                            12 2.52  83 2.54  77 2.54  80 2.56
  43  0.056  0.611  0.097-  44 2.52  65 2.52  66 2.52  42 2.52  45 2.52  48 2.52   6 2.52  12 2.52
                             9 2.52 104 2.54  82 2.54  77 2.54
  44  0.056  0.444  0.097-  43 2.52  65 2.52  42 2.52  62 2.52  41 2.52  39 2.52   7 2.52   5 2.52
                             6 2.52 103 2.54  77 2.54  78 2.55
  45  0.222  0.778  0.097-  59 2.52  60 2.52  46 2.52  42 2.52  48 2.52  43 2.52  22 2.52  12 2.52
                            11 2.52  82 2.54  83 2.54  84 2.54
  46  0.222  0.944  0.097-  45 2.52  59 2.52  48 2.52  52 2.52  47 2.52  37 2.52  11 2.52  13 2.52
                             4 2.52  81 2.54  75 2.54  84 2.54
  47  0.056  0.944  0.097-  48 2.52  69 2.52  70 2.52  46 2.52  37 2.52  40 2.52  10 2.52   4 2.52
                             1 2.52 108 2.54  81 2.54  74 2.54
  48  0.056  0.778  0.097-  47 2.52  69 2.52  46 2.52  66 2.52  45 2.52  43 2.52  11 2.52   9 2.52
                            10 2.52 107 2.54  81 2.54  82 2.54
  49  0.556  0.111  0.097-  63 2.52  64 2.52  50 2.52  58 2.52  52 2.52  59 2.52  26 2.52  16 2.52
                            15 2.52  88 2.54  86 2.54  87 2.54
  50  0.556  0.278  0.097-  49 2.52  63 2.52  52 2.52  68 2.52  51 2.52  53 2.52  15 2.52  29 2.52
                            20 2.52  91 2.53  85 2.54  88 2.54
  51  0.389  0.278  0.097-  37 2.52  52 2.52  38 2.52  50 2.52  56 2.52  53 2.52  14 2.52  20 2.52
                            17 2.52  76 2.54  90 2.54  85 2.54
  52  0.389  0.111  0.097-  51 2.52  37 2.52  50 2.52  46 2.52  49 2.52  59 2.52  15 2.52  13 2.52
                            14 2.52  85 2.54  75 2.54  86 2.55
  53  0.556  0.444  0.097-  67 2.52  68 2.52  54 2.52  50 2.52  56 2.52  51 2.52  30 2.52  20 2.52
                            19 2.52  90 2.54  91 2.54  92 2.54
  54  0.556  0.611  0.097-  53 2.52  67 2.52  56 2.52  72 2.52  55 2.52  57 2.52  19 2.52  33 2.52
                            24 2.52  92 2.54  95 2.56  89 2.58
  55  0.389  0.611  0.097-  41 2.52  56 2.52  42 2.52  54 2.52  60 2.52  57 2.52  18 2.52  24 2.52
                            21 2.52  80 2.55  94 2.56  89 2.58
  56  0.389  0.444  0.097-  55 2.52  41 2.52  54 2.52  38 2.52  53 2.52  51 2.52  19 2.52  17 2.52
                            18 2.52  90 2.54  79 2.54  89 2.59
  57  0.556  0.778  0.097-  71 2.52  72 2.52  58 2.52  54 2.52  60 2.52  55 2.52  34 2.52  24 2.52
                            23 2.52  96 2.54  94 2.56  95 2.56
  58  0.556  0.944  0.097-  57 2.52  71 2.52  60 2.52  64 2.52  59 2.52  49 2.52  23 2.52  25 2.52
                            16 2.52  93 2.54  96 2.54  87 2.54
  59  0.389  0.944  0.097-  45 2.52  60 2.52  46 2.52  58 2.52  52 2.52  49 2.52  22 2.52  16 2.52
                            13 2.52  84 2.54  93 2.54  86 2.55
  60  0.389  0.778  0.097-  59 2.52  45 2.52  58 2.52  42 2.52  57 2.52  55 2.52  23 2.52  21 2.52
[...]
   -.286E+01 0.117E+02 0.127E+04   0.284E+01 -.117E+02 -.127E+04   0.191E-01 -.194E-01 -.500E+00   0.514E-04 0.131E-02 0.964E-02
   -.977E+01 0.631E+01 0.130E+04   0.978E+01 -.634E+01 -.130E+04   -.150E-01 0.436E-01 -.383E+00   0.652E-03 0.215E-03 0.958E-02
   0.110E+01 -.806E+01 0.130E+04   -.112E+01 0.811E+01 -.130E+04   -.475E-02 -.399E-01 -.486E+00   0.103E-02 -.513E-03 0.938E-02
   0.664E+01 -.479E+01 0.130E+04   -.662E+01 0.480E+01 -.130E+04   0.101E-01 -.789E-02 -.468E+00   0.110E-02 -.705E-03 0.915E-02
   0.668E+01 0.242E+01 0.130E+04   -.668E+01 -.246E+01 -.130E+04   -.701E-02 0.109E+00 -.305E+00   0.868E-03 -.113E-03 0.929E-02
   0.128E+01 -.125E+02 0.129E+04   -.127E+01 0.125E+02 -.129E+04   -.111E-01 -.248E-01 -.432E+00   0.118E-02 -.339E-03 0.926E-02
   0.211E+01 -.135E+02 0.128E+04   -.211E+01 0.136E+02 -.128E+04   0.643E-02 -.233E-01 -.370E+00   0.851E-03 0.685E-03 0.939E-02
   0.453E+01 -.622E+01 0.127E+04   -.454E+01 0.624E+01 -.127E+04   0.144E-01 -.140E-01 -.433E+00   0.228E-03 0.899E-03 0.934E-02
   0.541E+01 -.961E+01 0.129E+04   -.545E+01 0.960E+01 -.129E+04   0.877E-01 -.117E-01 -.333E+00   0.780E-03 -.174E-03 0.909E-02
[...]
   0.137E+03 0.111E+03 -.125E+04   -.138E+03 -.112E+03 0.125E+04   0.125E+01 0.125E+01 -.111E+00   0.772E-04 -.700E-04 -.146E-02
   0.101E+02 0.639E+02 -.122E+04   -.106E+02 -.592E+02 0.122E+04   0.527E+00 -.471E+01 0.861E+00   0.945E-05 0.134E-03 -.161E-02
   -.194E+02 0.256E+03 -.152E+04   0.197E+02 -.259E+03 0.153E+04   -.278E+00 0.258E+01 -.140E+02   -.680E-04 0.141E-03 -.239E-02
   0.235E+03 -.887E+02 -.160E+04   -.238E+03 0.910E+02 0.162E+04   0.318E+01 -.225E+01 -.139E+02   0.733E-04 -.107E-03 -.200E-02
   -.575E+02 -.646E+02 -.321E+03   0.617E+02 0.685E+02 0.321E+03   -.426E+01 -.389E+01 0.103E+00   -.307E-04 -.387E-04 -.405E-03
   0.831E+01 -.867E+02 -.331E+03   -.934E+01 0.924E+02 0.331E+03   0.101E+01 -.567E+01 -.730E-02   0.266E-04 -.329E-04 -.344E-03
   0.661E+02 0.572E+02 -.313E+03   -.704E+02 -.611E+02 0.314E+03   0.424E+01 0.383E+01 -.668E+00   0.377E-04 0.122E-04 -.421E-03
   -.714E+02 0.625E+02 -.292E+03   0.782E+02 -.650E+02 0.291E+03   -.689E+01 0.255E+01 0.129E+01   -.298E-04 0.252E-04 -.469E-03
   0.519E+02 0.836E+02 -.293E+03   -.572E+02 -.886E+02 0.291E+03   0.524E+01 0.507E+01 0.161E+01   0.237E-05 0.365E-04 -.458E-03
   0.439E+02 -.835E+02 -.312E+03   -.455E+02 0.905E+02 0.310E+03   0.161E+01 -.696E+01 0.198E+01   0.217E-04 -.235E-04 -.370E-03
   0.865E+02 0.400E+02 -.312E+03   -.922E+02 -.448E+02 0.311E+03   0.562E+01 0.480E+01 0.113E+01   0.247E-04 -.215E-04 -.392E-03
   -.355E+02 0.269E+02 -.287E+03   0.360E+02 -.291E+02 0.292E+03   -.454E+00 0.227E+01 -.493E+01   -.323E-04 0.131E-04 -.476E-03
   -.666E+02 -.430E+02 -.294E+03   0.701E+02 0.473E+02 0.293E+03   -.352E+01 -.434E+01 0.247E+00   -.421E-04 0.162E-05 -.464E-03
   -.516E+02 0.430E+02 -.296E+03   0.535E+02 -.466E+02 0.293E+03   -.188E+01 0.356E+01 0.354E+01   -.219E-04 0.678E-05 -.435E-03
   0.284E+01 0.390E+01 0.212E+02   -.227E-12 -.222E-11 0.181E-10   -.284E+01 -.391E+01 -.224E+02   -.155E-03 0.478E-05 0.948E+00

 POSITION                                       TOTAL-FORCE (eV/Angst)
      0.00000      0.00000      0.00000        -0.006639     -0.009016     -0.085632
     -1.26233      2.18641      0.00000         0.000213      0.003310     -0.088811
      1.26233      2.18641      0.00000         0.009108      0.015438     -0.084053
      2.52465      0.00000      0.00000         0.000193      0.003043     -0.084827
     -2.52465      4.37282      0.00000         0.010771      0.001055     -0.079060
     -3.78698      6.55923      0.00000         0.006617      0.004522     -0.081668
     -1.26233      6.55923      0.00000         0.004893      0.001747     -0.082676
     -0.00000      4.37282      0.00000         0.006586      0.003907     -0.077507
     -5.04930      8.74564      0.00000        -0.004857      0.002648     -0.090620
     -6.31163     10.93206      0.00000        -0.012811     -0.008001     -0.082523
     -3.78698     10.93206      0.00000         0.009143     -0.006072     -0.082095
     -2.52465      8.74564      0.00000         0.010308      0.005406     -0.079610
      5.04930      0.00000      0.00000         0.006413     -0.003335     -0.088080
      3.78698      2.18641      0.00000        -0.001849      0.014237     -0.080876
      6.31163      2.18641      0.00000        -0.006179      0.007090     -0.092747
      7.57395      0.00000      0.00000         0.002765     -0.006287     -0.085162
      2.52465      4.37282      0.00000        -0.002235     -0.010324     -0.071542
      1.26233      6.55923      0.00000        -0.007918     -0.000853     -0.078068
      3.78698      6.55923      0.00000         0.001817     -0.001269     -0.077919
      5.04930      4.37282      0.00000         0.001275     -0.005234     -0.077030
      0.00000      8.74564      0.00000        -0.002118      0.000090     -0.073213
     -1.26233     10.93206      0.00000         0.000570     -0.005449     -0.075694
      1.26233     10.93206      0.00000         0.001734     -0.003041     -0.079571
      2.52465      8.74564      0.00000        -0.003409      0.005560     -0.076509
     10.09860      0.00000      0.00000         0.004419      0.001093     -0.081419
      8.83628      2.18641      0.00000         0.000342     -0.005428     -0.080246
     11.36093      2.18641      0.00000         0.000832     -0.011615     -0.078816
     12.62325      0.00000      0.00000        -0.005430     -0.006302     -0.082683
      7.57395      4.37282      0.00000        -0.009503      0.007339     -0.078753
      6.31163      6.55923      0.00000         0.011333     -0.001273     -0.077465
      8.83628      6.55923      0.00000        -0.014281      0.004912     -0.083586
     10.09860      4.37282      0.00000        -0.004461     -0.000722     -0.078378
      5.04930      8.74564      0.00000         0.005436      0.004844     -0.076940
      3.78698     10.93206      0.00000         0.002565      0.002026     -0.076687
      6.31163     10.93206      0.00000         0.001092     -0.005383     -0.081861
      7.57395      8.74564      0.00000        -0.004612      0.002995     -0.081759
      2.52468      1.45759      2.06142         0.007188     -0.005771      0.052817
      1.26235      3.64400      2.06142        -0.003435      0.014366      0.080265
     -1.26230      3.64400      2.06142         0.008567      0.001604      0.059550
      0.00003      1.45759      2.06142         0.002577     -0.002724      0.065449
      0.00003      5.83042      2.06142         0.009503      0.008028      0.097633
     -1.26230      8.01683      2.06142         0.032603     -0.017379      0.084180
     -3.78695      8.01683      2.06142         0.000972      0.000856      0.058371
     -2.52462      5.83042      2.06142         0.009111     -0.002064      0.076514
     -2.52462     10.20324      2.06142         0.000039      0.008762      0.047046
     -3.78695     12.38965      2.06142         0.004786      0.002701      0.045331
     -6.31160     12.38965      2.06142         0.003613      0.003605      0.059469
     -5.04927     10.20324      2.06142         0.006522      0.005348      0.046843
      7.57398      1.45759      2.06142        -0.005145     -0.000755      0.066307
      6.31165      3.64400      2.06142         0.003437     -0.002944      0.048659
      3.78700      3.64400      2.06142         0.007215      0.001728      0.060788
      5.04933      1.45759      2.06142         0.005734     -0.013186      0.057122
      5.04933      5.83042      2.06142        -0.003628      0.013334      0.067035
      3.78700      8.01683      2.06142        -0.025235      0.001603      0.141958
      1.26235      8.01683      2.06142         0.028018     -0.000235      0.149910
      2.52468      5.83042      2.06142        -0.005986      0.061256      0.149748
      2.52468     10.20324      2.06142         0.001865     -0.027705      0.118422
      1.26235     12.38965      2.06142         0.003393     -0.001118      0.073336
     -1.26230     12.38965      2.06142         0.001858      0.002608      0.068666
      0.00003     10.20324      2.06142         0.047876     -0.014279      0.103469
[...]
      1.50219      7.99336      8.96532         0.026084      0.023096      0.007255
      1.81043      6.62354      9.07828         0.020637     -0.016122     -0.022910
      3.14784      6.18889      9.20445         0.059231     -0.061373      0.049732
      3.41785      4.86138      9.42709         0.018076     -0.076222      0.001242
      0.21258      8.43925      9.10564         0.009779      0.035755      0.007196
      4.70420      9.20135      8.91356        -0.024899      0.005933      0.006700
      2.36245      9.98573      8.75508        -0.029721      0.030100      0.031812
      1.00674      5.89872      9.20947        -0.052967     -0.020119      0.009901
      4.35859      4.52510      9.23897         0.001664      0.068954     -0.012723
      2.69820      4.18196      9.19672        -0.066346      0.029144     -0.012112
      0.00234      9.39318      8.81827        -0.000854     -0.004003     -0.029515
     -0.54263      7.77982      8.94306        -0.064946     -0.036516     -0.013082
      5.71057      6.23747     10.46472        -0.010535      0.023862      0.007783
      6.30723      7.56406      9.42038         0.038425     -0.000624      0.014749
      5.99781      5.95909      8.73577         0.001775     -0.044783     -0.043053
    total drift:                               -0.005946     -0.012475     -0.206227

  FREE ENERGIE OF THE ION-ELECTRON SYSTEM (eV)
  free  energy   TOTEN  =      -632.96826361 eV

  energy  without entropy=     -632.91886603  energy(sigma->0) =     -632.94356482

[...]

  free energy =  -0.620591304047E+03  energy without entropy=  -0.620541861634E+03

[...]

 d Force = 0.7681464E-03[ 0.530E-03, 0.101E-02]  d Energy = 0.7676661E-03 0.480E-06
 d Force = 0.1027305E+02[ 0.103E+02, 0.103E+02]  d Ewald  = 0.1027305E+02 0.153E-05

 Steepest descent step on ions:
 trial-energy change:   -0.000768  1 .order   -0.000768   -0.001007   -0.000530
  (g-gl).g = 0.101E-02      g.g   = 0.101E-02  gl.gl    = 0.000E+00
 g(Force)  = 0.101E-02   g(Stress)= 0.000E+00 ortho     = 0.000E+00
 gamma     =   0.00000
 trial     =   1.00000
 opt step  =   2.10966  (harmonic =   2.10966) maximal distance =0.00210534
 next E    =  -632.969326   (d E  =  -0.00106)

[...]

 d Force = 0.2931490E-03[-0.131E-05, 0.588E-03]  d Energy = 0.2882426E-03 0.491E-05
 d Force = 0.1139893E+02[ 0.114E+02, 0.114E+02]  d Ewald  = 0.1139893E+02 0.102E-05

[...]

 Conjugate gradient step on ions:
 trial-energy change:   -0.000522  1 .order   -0.000524   -0.000682   -0.000366
  (g-gl).g = 0.807E-03      g.g   = 0.806E-03  gl.gl    = 0.101E-02
 g(Force)  = 0.806E-03   g(Stress)= 0.000E+00 ortho     =-0.118E-05
 gamma     =   0.80199
 trial     =   0.84731
 opt step  =   1.82631  (harmonic =   1.82631) maximal distance =0.00214971
 next E    =  -632.970055   (d E  =  -0.00074)

[...]

 Conjugate gradient step on ions:
 trial-energy change:   -0.000288  1 .order   -0.000294   -0.000333   -0.000255
  (g-gl).g = 0.578E-03      g.g   = 0.633E-03  gl.gl    = 0.363E-03
 g(Force)  = 0.633E-03   g(Stress)= 0.000E+00 ortho     = 0.513E-04
 gamma     =   1.59293
 trial     =   0.46592
 opt step  =   1.86369  (harmonic =   1.99161) maximal distance =0.00578430
 next E    =  -632.972242   (d E  =  -0.00071)

[...]

 d Force = 0.1239841E-04[-0.346E-05, 0.283E-04]  d Energy =-0.2081090E-06 0.126E-04
 d Force = 0.1401371E+02[ 0.140E+02, 0.140E+02]  d Ewald  = 0.1401371E+02 0.137E-06

[...]

 d Force =-0.2866512E-03[-0.938E-03, 0.364E-03]  d Energy =-0.2962051E-03 0.955E-05
 d Force = 0.5570845E+01[ 0.557E+01, 0.557E+01]  d Ewald  = 0.5570848E+01-0.260E-05

[...]

 d Force = 0.3423345E-03[ 0.945E-05, 0.675E-03]  d Energy = 0.3417634E-03 0.571E-06
 d Force =-0.4011807E+01[-0.401E+01,-0.401E+01]  d Ewald  =-0.4011808E+01 0.138E-05

[...]

 d Force = 0.2784227E-03[-0.101E-03, 0.658E-03]  d Energy = 0.2683746E-03 0.100E-04
 d Force =-0.1303591E+01[-0.130E+01,-0.130E+01]  d Ewald  =-0.1303591E+01 0.792E-06

[...]

 d Force =-0.2423138E-03[-0.791E-03, 0.307E-03]  d Energy =-0.1973166E-03-0.450E-04
 d Force =-0.2072365E+02[-0.207E+02,-0.207E+02]  d Ewald  =-0.2072365E+02 0.117E-06

[...]

 d Force =-0.4932905E-04[-0.312E-03, 0.213E-03]  d Energy =-0.1161258E-04-0.377E-04
 d Force =-0.2810718E+02[-0.281E+02,-0.281E+02]  d Ewald  =-0.2810718E+02-0.141E-05

[...]

 d Force = 0.7553762E-04[-0.990E-05, 0.161E-03]  d Energy = 0.6202460E-04 0.135E-04
 d Force =-0.7137121E+00[-0.713E+00,-0.714E+00]  d Ewald  =-0.7137122E+00 0.254E-07

[...]

 d Force = 0.2136875E-03[ 0.235E-04, 0.404E-03]  d Energy = 0.2080798E-03 0.561E-05
 d Force =-0.1006913E+01[-0.101E+01,-0.101E+01]  d Ewald  =-0.1006914E+01 0.778E-06

[...]

 d Force = 0.2507979E-04[-0.709E-06, 0.509E-04]  d Energy = 0.1993470E-04 0.515E-05
 d Force = 0.2315997E+01[ 0.232E+01, 0.232E+01]  d Ewald  = 0.2315996E+01 0.467E-06

[...]

 Conjugate gradient step on ions:
 trial-energy change:   -0.000071  1 .order   -0.000073   -0.000088   -0.000059
  (g-gl).g = 0.150E-03      g.g   = 0.143E-03  gl.gl    = 0.101E-03
 g(Force)  = 0.143E-03   g(Stress)= 0.000E+00 ortho     =-0.650E-06
 gamma     =   1.48462
 trial     =   0.62283
 opt step  =   1.86716  (harmonic =   1.86716) maximal distance =0.00243160
 next E    =  -633.044410   (d E  =  -0.00013)

[...]

 eigenvalue-minimisations  :  6100
 total energy-change (2. order) :-0.1877104E-04  (-0.3011574E-05)
 number of electron    1631.9999246 magnetization
 augmentation part     1011.4504610 magnetization

[...]

 eigenvalues of (default mixing * dielectric matrix)
  average eigenvalue GAMMA=   0.9968
  2.2878  0.5151  0.1875

[...]

--------------------------------------- Iteration    256(   5)  ---------------------------------------

 eigenvalue-minimisations  :  5560
 total energy-change (2. order) : 0.7837662E-06  (-0.4269282E-06)
 number of electron    1631.9999246 magnetization
 augmentation part     1011.4509391 magnetization

 DIPCOR: dipole corrections for dipol
 direction  3 min pos   153,
 dipolmoment           0.000000      0.000000     -0.580791 electrons x Angstroem
 Tr[quadrupol]    -65182.739093

 energy correction for charged system         0.000000 eV
 dipol+quadrupol energy correction           -0.007284 eV
 added-field ion interaction        -20.416684 eV  (added to PSCEN)

  free energy =  -0.620622234653E+03  energy without entropy=  -0.620573119484E+03

------------------------ aborting loop because EDIFF is reached ----------------------------------------

  Number of pair interactions contributing to vdW energy:  835425
  Edisp (eV):  -12.42225

  FORCE on cell =-STRESS in cart. coord.  units (eV):
  Direction    XX          YY          ZZ          XY          YZ          ZX
  Alpha Z  3793.46401  3793.46401  3793.46401
  Ewald  706956.82510706779.81665************  -394.27295  -187.33304   175.55443
  Hartree760271.14000760111.61001************  -327.44354  -127.42614   122.14994
  E(xc)   -9431.94826 -9431.93578 -9453.49111    -0.06753    -0.22806     0.21460
  Local  ************************************   724.65341   311.27432  -292.63363
  n-local -3117.57476 -3117.79041 -3209.93879    -1.32202    -0.16340     0.18258
  augment 13612.44474 13612.60772 13680.19371    -0.03461     0.01951    -0.05171
  Kinetic 13617.00766 13614.03796 13808.33449    -1.71297     3.66716    -5.35894
  Fock        0.00000     0.00000     0.00000     0.00000     0.00000     0.00000
  vdW       -16.61379   -16.53880   -12.64775     0.10207     0.03301    -0.03183
  Total      12.05880    12.11890    -3.73283    -0.09816    -0.15665     0.02545
  in kB       4.58956     4.61243    -1.42071    -0.03736    -0.05962     0.00969

  FREE ENERGIE OF THE ION-ELECTRON SYSTEM (eV)
  free  energy   TOTEN  =      -633.04448652 eV

  energy  without entropy=     -632.99537135  energy(sigma->0) =     -633.01992893

 d Force = 0.7836073E-04[ 0.550E-04, 0.102E-03]  d Energy = 0.7502897E-04 0.333E-05
 d Force = 0.1189512E+01[ 0.119E+01, 0.119E+01]  d Ewald  = 0.1189512E+01 0.683E-07

 Conjugate gradient step on ions:
 trial-energy change:   -0.000075  1 .order   -0.000078   -0.000102   -0.000055
  (g-gl).g = 0.762E-04      g.g   = 0.108E-03  gl.gl    = 0.143E-03
 g(Force)  = 0.108E-03   g(Stress)= 0.000E+00 ortho     = 0.170E-04
 gamma     =   0.53458
 trial     =   0.87169
 opt step  =   1.89713  (harmonic =   1.89713) maximal distance =0.00159190
 next E    =  -633.044522   (d E  =  -0.00011)

 reached required accuracy - stopping structural energy minimisation