 vasp.5.4.4.18Apr17-6-g9f103f2a35 (build Jun 30 2017 19:19:18) complex

 executed on         MareNostrum4 date 2022.04.05  13:06:56

 INCAR:
 POTCAR:    PAW_PBE Cu 22Jun2005
 POTCAR:    PAW_PBE O 08Apr2002
 POTCAR:    PAW_PBE C 08Apr2002
 POTCAR:    PAW_PBE N 08Apr2002
 POTCAR:    PAW_PBE H 15Jun2001

 POTCAR:    PAW_PBE Cu 22Jun2005

 POTCAR:    PAW_PBE O 08Apr2002

[...]

 POTCAR:    PAW_PBE N 08Apr2002

 POTCAR:    PAW_PBE H 15Jun2001

 Optimization of the real space projectors (new method)

 maximal supplied QI-value         = 16.25
 optimisation between [QCUT,QGAM] = [ 10.73, 21.61] = [ 32.22,130.83] Ry
 Optimized for a Real-space Cutoff    1.42 Angstroem

   l    n(q)    QCUT    max X(q) W(low)/X(q) W(high)/X(q)  e(spline)
   2      8    10.726     4.610    0.15E-03    0.25E-03    0.14E-06
   2      8    10.726     8.522    0.25E-03    0.43E-03    0.27E-06
   0      9    10.726    51.609    0.94E-04    0.10E-03    0.12E-06
   0      9    10.726    27.747    0.85E-04    0.96E-04    0.11E-06
   1      9    10.726    20.408    0.25E-03    0.14E-03    0.12E-06
   1      9    10.726    13.425    0.22E-03    0.13E-03    0.11E-06
 Optimization of the real space projectors (new method)

[...]

   l    n(q)    QCUT    max X(q) W(low)/X(q) W(high)/X(q)  e(spline)
   0      8    10.807    79.467    0.34E-03    0.68E-03    0.21E-06
   0      8    10.807    66.151    0.34E-03    0.67E-03    0.21E-06
   1      7    10.807    14.030    0.45E-03    0.13E-02    0.11E-05
   1      7    10.807     9.831    0.48E-03    0.13E-02    0.11E-05
 Optimization of the real space projectors (new method)

 maximal supplied QI-value         = 34.20
 optimisation between [QCUT,QGAM] = [ 10.60, 21.55] = [ 31.48,130.03] Ry
 Optimized for a Real-space Cutoff    1.23 Angstroem

   l    n(q)    QCUT    max X(q) W(low)/X(q) W(high)/X(q)  e(spline)
   0      8    10.603    19.460    0.37E-03    0.59E-03    0.23E-06
   0      8    10.603    12.209    0.35E-03    0.56E-03    0.22E-06
   1      7    10.603     4.655    0.70E-04    0.28E-03    0.29E-06
  PAW_PBE Cu 22Jun2005                  :
  PAW_PBE O 08Apr2002                   :
  PAW_PBE C 08Apr2002                   :
  PAW_PBE N 08Apr2002                   :
  PAW_PBE H 15Jun2001                   :

 POSCAR: Cu  O  C  N  H
  positions in cartesian coordinates
 exchange correlation table for  LEXCH =        8
   RHO(1)=    0.500       N(1)  =     2000
   RHO(2)=  100.500       N(2)  =     4000

 ion  position               nearest neighbor table
   1  0.000  0.000  0.000-   2 2.52   3 2.52   4 2.52  28 2.52  10 2.52  35 2.52  70 2.52  40 2.52
                            47 2.52
   2  0.000  0.167  0.000-   3 2.52   1 2.52   8 2.52  28 2.52   5 2.52  27 2.52  39 2.52  61 2.52
                            40 2.52
   3  0.167  0.167  0.000-   2 2.52   1 2.52   8 2.52  14 2.52   4 2.52  17 2.52  38 2.52  40 2.52
                            37 2.52
   4  0.167  0.000  0.000-  10 2.52  14 2.52   1 2.52  13 2.52   3 2.52  11 2.52  47 2.52  37 2.52
                            46 2.52
   5  0.000  0.333  0.000-   6 2.52   8 2.52  32 2.52   7 2.52  27 2.52   2 2.52  62 2.52  44 2.52
                            39 2.52
   6  0.000  0.500  0.000-  12 2.52   5 2.52   7 2.52   9 2.52  32 2.52  31 2.52  43 2.52  65 2.52
                            44 2.52
   7  0.167  0.500  0.000-  18 2.52   8 2.52  21 2.52   6 2.52   5 2.52  12 2.52  42 2.52  44 2.52
                            41 2.52
   8  0.167  0.333  0.000-   7 2.52   2 2.52  18 2.52   3 2.52   5 2.52  17 2.52  39 2.52  41 2.52
                            38 2.52
   9  0.000  0.667  0.000-  10 2.52  12 2.52  36 2.52  31 2.52   6 2.52  11 2.52  66 2.52  48 2.52
                            43 2.52
  10  0.000  0.833  0.000-   4 2.52   9 2.52  11 2.52   1 2.52  36 2.52  35 2.52  47 2.52  69 2.52
                            48 2.52
  11  0.167  0.833  0.000-  22 2.52  13 2.52  12 2.52  10 2.52   4 2.52   9 2.52  46 2.52  48 2.52
                            45 2.52
  12  0.167  0.667  0.000-   6 2.52  11 2.52  22 2.52   9 2.52  21 2.52   7 2.52  43 2.52  45 2.52
                            42 2.52
  13  0.333  0.000  0.000-  15 2.52  22 2.52  11 2.52  16 2.52   4 2.52  14 2.52  46 2.52  52 2.52
                            59 2.52
  14  0.333  0.167  0.000-   4 2.52  17 2.52  15 2.52   3 2.52  13 2.52  20 2.52  37 2.52  51 2.52
                            52 2.52
  15  0.500  0.167  0.000-  13 2.52  20 2.52  14 2.52  26 2.52  16 2.52  29 2.52  50 2.52  52 2.52
                            49 2.52
  16  0.500  0.000  0.000-  26 2.52  25 2.52  13 2.52  23 2.52  15 2.52  22 2.52  59 2.52  49 2.52
                            58 2.52
  17  0.333  0.333  0.000-  14 2.52  20 2.52   8 2.52  19 2.52  18 2.52   3 2.52  38 2.52  56 2.52
                            51 2.52
  18  0.333  0.500  0.000-   7 2.52  21 2.52   8 2.52  17 2.52  24 2.52  19 2.52  41 2.52  55 2.52
                            56 2.52
  19  0.500  0.500  0.000-  30 2.52  33 2.52  20 2.52  17 2.52  24 2.52  18 2.52  54 2.52  56 2.52
                            53 2.52
  20  0.500  0.333  0.000-  19 2.52  30 2.52  15 2.52  29 2.52  17 2.52  14 2.52  51 2.52  53 2.52
                            50 2.52
  21  0.333  0.667  0.000-  18 2.52   7 2.52  24 2.52  12 2.52  23 2.52  22 2.52  42 2.52  60 2.52
                            55 2.52
  22  0.333  0.833  0.000-  11 2.52  13 2.52  12 2.52  16 2.52  21 2.52  23 2.52  45 2.52  59 2.52
                            60 2.52
  23  0.500  0.833  0.000-  34 2.52  25 2.52  24 2.52  16 2.52  21 2.52  22 2.52  58 2.52  60 2.52
                            57 2.52
  24  0.500  0.667  0.000-  23 2.52  34 2.52  33 2.52  21 2.52  18 2.52  19 2.52  55 2.52  57 2.52
                            54 2.52
  25  0.667  0.000  0.000-  23 2.52  27 2.52  34 2.52  16 2.52  28 2.52  26 2.52  58 2.52  64 2.52
                            71 2.52
  26  0.667  0.167  0.000-  16 2.52  29 2.52  27 2.52  15 2.52  25 2.52  32 2.52  49 2.52  63 2.52
                            64 2.52
  27  0.833  0.167  0.000-  25 2.52  32 2.52  26 2.52  28 2.52   5 2.52   2 2.52  62 2.52  64 2.52
                            61 2.52
  28  0.833  0.000  0.000-  35 2.52   1 2.52  25 2.52  27 2.52  34 2.52   2 2.52  71 2.52  61 2.52
                            70 2.52
  29  0.667  0.333  0.000-  31 2.52  26 2.52  20 2.52  32 2.52  30 2.52  15 2.52  50 2.52  68 2.52
                            63 2.52
  30  0.667  0.500  0.000-  19 2.52  20 2.52  33 2.52  31 2.52  29 2.52  36 2.52  53 2.52  67 2.52
                            68 2.52
  31  0.833  0.500  0.000-  36 2.52  29 2.52  30 2.52  32 2.52   9 2.52   6 2.52  66 2.52  68 2.52
                            65 2.52
  32  0.833  0.333  0.000-  27 2.52   5 2.52  29 2.52   6 2.52  31 2.52  26 2.52  63 2.52  65 2.52
                            62 2.52
  33  0.667  0.667  0.000-  19 2.52  30 2.52  35 2.52  24 2.52  36 2.52  34 2.52  54 2.52  72 2.52
                            67 2.52
  34  0.667  0.833  0.000-  23 2.52  25 2.52  24 2.52  35 2.52  28 2.52  33 2.52  57 2.52  71 2.52
                            72 2.52
  35  0.833  0.833  0.000-  28 2.52  33 2.52  34 2.52   1 2.52  36 2.52  10 2.52  70 2.52  72 2.52
                            69 2.52
  36  0.833  0.667  0.000-  31 2.52   9 2.52  33 2.52  30 2.52  10 2.52  35 2.52  67 2.52  69 2.52
                            66 2.52
  37  0.222  0.111  0.097-  75 2.50  76 2.50  74 2.50  51 2.52  52 2.52  38 2.52  46 2.52  40 2.52
                            47 2.52  14 2.52   4 2.52   3 2.52
  38  0.222  0.278  0.097-  76 2.50  73 2.50  79 2.50  37 2.52  51 2.52  40 2.52  56 2.52  39 2.52
                            41 2.52   3 2.52  17 2.52   8 2.52
  39  0.056  0.278  0.097-  73 2.50 100 2.50  78 2.50  40 2.52  61 2.52  62 2.52  38 2.52  41 2.52
                            44 2.52   2 2.52   8 2.52   5 2.52
  40  0.056  0.111  0.097-  74 2.50  99 2.50  73 2.50  39 2.52  61 2.52  38 2.52  70 2.52  37 2.52
                            47 2.52   3 2.52   1 2.52   2 2.52
  41  0.222  0.444  0.097-  79 2.50  80 2.50  78 2.50  55 2.52  56 2.52  42 2.52  38 2.52  44 2.52
                            39 2.52  18 2.52   8 2.52   7 2.52
  42  0.222  0.611  0.097-  80 2.50  77 2.50  83 2.50  41 2.52  55 2.52  44 2.52  60 2.52  43 2.52
                            45 2.52   7 2.52  21 2.52  12 2.52
  43  0.056  0.611  0.097-  77 2.50 104 2.50  82 2.50  44 2.52  65 2.52  66 2.52  42 2.52  48 2.52
                            45 2.52   6 2.52  12 2.52   9 2.52
  44  0.056  0.444  0.097-  78 2.50 103 2.50  77 2.50  43 2.52  65 2.52  42 2.52  62 2.52  41 2.52
                            39 2.52   7 2.52   5 2.52   6 2.52
  45  0.222  0.778  0.097-  83 2.50  84 2.50  82 2.50  59 2.52  60 2.52  46 2.52  42 2.52  48 2.52
                            43 2.52  22 2.52  12 2.52  11 2.52
  46  0.222  0.944  0.097-  84 2.50  81 2.50  75 2.50  45 2.52  59 2.52  48 2.52  52 2.52  47 2.52
                            37 2.52  11 2.52  13 2.52   4 2.52
  47  0.056  0.944  0.097-  81 2.50 108 2.50  74 2.50  69 2.52  48 2.52  70 2.52  46 2.52  40 2.52
                            37 2.52  10 2.52   4 2.52   1 2.52
  48  0.056  0.778  0.097-  82 2.50 107 2.50  81 2.50  47 2.52  69 2.52  46 2.52  66 2.52  45 2.52
                            43 2.52  11 2.52   9 2.52  10 2.52
  49  0.556  0.111  0.097-  87 2.50  88 2.50  86 2.50  63 2.52  64 2.52  50 2.52  58 2.52  52 2.52
                            59 2.52  26 2.52  16 2.52  15 2.52
  50  0.556  0.278  0.097-  88 2.50  85 2.50  91 2.50  49 2.52  63 2.52  52 2.52  68 2.52  51 2.52
                            53 2.52  15 2.52  29 2.52  20 2.52
  51  0.389  0.278  0.097-  85 2.50  76 2.50  90 2.50  37 2.52  52 2.52  38 2.52  50 2.52  56 2.52
                            53 2.52  14 2.52  20 2.52  17 2.52
  52  0.389  0.111  0.097-  86 2.50  75 2.50  85 2.50  51 2.52  37 2.52  50 2.52  46 2.52  49 2.52
                            59 2.52  15 2.52  13 2.52  14 2.52
  53  0.556  0.444  0.097-  91 2.50  92 2.50  90 2.50  67 2.52  68 2.52  54 2.52  50 2.52  56 2.52
                            51 2.52  30 2.52  20 2.52  19 2.52
  54  0.556  0.611  0.097-  92 2.50  89 2.50  95 2.50  53 2.52  67 2.52  56 2.52  72 2.52  55 2.52
                            57 2.52  19 2.52  33 2.52  24 2.52
  55  0.389  0.611  0.097-  89 2.50  80 2.50  94 2.50  41 2.52  56 2.52  42 2.52  54 2.52  60 2.52
                            57 2.52  18 2.52  24 2.52  21 2.52
  56  0.389  0.444  0.097-  90 2.50  79 2.50  89 2.50  55 2.52  41 2.52  54 2.52  38 2.52  53 2.52
                            51 2.52  19 2.52  17 2.52  18 2.52
  57  0.556  0.778  0.097-  95 2.50  96 2.50  94 2.50  71 2.52  72 2.52  58 2.52  54 2.52  60 2.52
                            55 2.52  34 2.52  24 2.52  23 2.52
  58  0.556  0.944  0.097-  96 2.50  93 2.50  87 2.50  57 2.52  71 2.52  60 2.52  64 2.52  59 2.52
                            49 2.52  23 2.52  25 2.52  16 2.52
  59  0.389  0.944  0.097-  93 2.50  84 2.50  86 2.50  45 2.52  60 2.52  46 2.52  58 2.52  52 2.52
                            49 2.52  22 2.52  16 2.52  13 2.52
  60  0.389  0.778  0.097-  94 2.50  83 2.50  93 2.50  59 2.52  45 2.52  58 2.52  42 2.52  57 2.52
[...]
   0.262E+02 -.133E+02 0.138E+04   -.262E+02 0.133E+02 -.138E+04   0.319E-01 0.135E-01 -.760E+00   -.711E-04 -.111E-03 0.252E-01
   0.192E+02 0.116E+02 0.140E+04   -.192E+02 -.116E+02 -.140E+04   0.165E-01 0.583E-01 -.577E+00   -.102E-03 -.326E-03 0.249E-01
   0.630E+01 -.309E+02 0.137E+04   -.635E+01 0.309E+02 -.137E+04   0.637E-01 0.178E-01 -.661E+00   0.428E-04 0.315E-03 0.252E-01
   0.120E+01 -.128E+02 0.134E+04   -.119E+01 0.127E+02 -.134E+04   -.292E-01 0.418E-01 -.455E+00   0.140E-03 0.241E-03 0.254E-01
   0.777E+01 0.580E+01 0.133E+04   -.782E+01 -.585E+01 -.133E+04   0.506E-01 0.565E-01 -.527E+00   0.549E-04 0.231E-03 0.255E-01
   0.208E+02 -.165E+02 0.135E+04   -.208E+02 0.165E+02 -.135E+04   -.545E-02 -.321E-01 -.656E+00   0.618E-04 0.220E-03 0.254E-01
[...]
   -.122E+03 -.679E+02 -.177E+04   0.123E+03 0.700E+02 0.177E+04   -.409E+00 -.223E+01 0.309E+00   -.534E-03 0.930E-04 -.314E-02
   0.249E+03 0.858E+02 -.173E+04   -.253E+03 -.887E+02 0.174E+04   0.523E+01 0.320E+01 -.161E+02   0.644E-03 0.237E-03 -.403E-02
   0.252E+01 -.884E+02 -.347E+03   -.205E+01 0.942E+02 0.347E+03   -.471E+00 -.581E+01 -.574E-01   -.149E-04 -.216E-03 -.797E-03
   0.659E+02 -.579E+02 -.343E+03   -.705E+02 0.614E+02 0.343E+03   0.466E+01 -.346E+01 -.416E+00   0.179E-03 -.173E-03 -.841E-03
   0.350E+02 0.730E+02 -.349E+03   -.354E+02 -.790E+02 0.349E+03   0.399E+00 0.594E+01 0.672E-01   0.252E-04 0.217E-03 -.717E-03
   -.914E+02 -.472E+02 -.355E+03   0.983E+02 0.513E+02 0.355E+03   -.651E+01 -.381E+01 0.632E+00   -.192E-03 -.501E-04 -.621E-03
   0.898E+02 -.348E+02 -.334E+03   -.960E+02 0.392E+02 0.333E+03   0.589E+01 -.420E+01 0.192E+01   0.264E-03 -.113E-03 -.715E-03
   0.403E+02 0.834E+02 -.333E+03   -.411E+02 -.909E+02 0.331E+03   0.662E+00 0.707E+01 0.236E+01   0.927E-04 0.250E-03 -.685E-03
   -.609E+02 -.141E+02 -.355E+03   0.643E+02 0.127E+02 0.359E+03   -.322E+01 0.129E+01 -.423E+01   -.185E-03 -.207E-04 -.104E-02
   -.196E+02 -.819E+02 -.355E+03   0.192E+02 0.875E+02 0.355E+03   0.412E+00 -.567E+01 -.189E+00   -.590E-04 -.175E-03 -.763E-03
   -.663E+02 -.167E+02 -.362E+03   0.716E+02 0.153E+02 0.360E+03   -.312E+01 0.103E+01 0.307E+01   -.111E-03 0.173E-04 -.172E-03
   -.769E+02 0.262E+02 -.357E+03   0.828E+02 -.268E+02 0.356E+03   -.571E+01 0.526E+00 0.128E+01   -.139E-03 0.150E-04 -.666E-03
   -.116E+02 0.489E+02 -.355E+03   0.106E+02 -.509E+02 0.361E+03   0.883E+00 0.192E+01 -.533E+01   -.251E-04 0.105E-03 -.110E-02
   0.163E+02 0.622E+02 -.364E+03   -.204E+02 -.655E+02 0.362E+03   0.324E+01 0.292E+01 0.253E+01   0.579E-04 0.718E-04 -.390E-03
   -.117E+02 -.104E+02 -.206E+02   0.803E-12 -.166E-11 0.591E-10   0.117E+02 0.104E+02 0.180E+02   -.134E-02 0.572E-04 0.249E+01

 POSITION                                       TOTAL-FORCE (eV/Angst)
      0.00000      0.00000      0.00000         0.005135      0.008047     -0.099433
     -1.26233      2.18641      0.00000         0.003731     -0.000377     -0.105692
      1.26233      2.18641      0.00000         0.011025      0.007005     -0.087556
      2.52465      0.00000      0.00000         0.001266      0.009039     -0.095906
     -2.52465      4.37282      0.00000         0.002379      0.008167     -0.100399
     -3.78698      6.55923      0.00000        -0.010684      0.002417     -0.093944
     -1.26233      6.55923      0.00000         0.012920     -0.006707     -0.095919
     -0.00000      4.37282      0.00000         0.016444      0.004877     -0.093405
     -5.04930      8.74564      0.00000        -0.000392     -0.010121     -0.102723
     -6.31163     10.93206      0.00000         0.002236     -0.006734     -0.105052
     -3.78698     10.93206      0.00000         0.000005     -0.002125     -0.092437
     -2.52465      8.74564      0.00000        -0.002369      0.010984     -0.106249
      5.04930      0.00000      0.00000         0.000406     -0.000338     -0.090400
      3.78698      2.18641      0.00000        -0.007580      0.008275     -0.101428
      6.31163      2.18641      0.00000        -0.005575      0.006024     -0.107692
      7.57395      0.00000      0.00000         0.004217     -0.004232     -0.099478
      2.52465      4.37282      0.00000        -0.000498     -0.002663     -0.079635
      1.26233      6.55923      0.00000         0.000634     -0.008796     -0.094120
      3.78698      6.55923      0.00000        -0.001879     -0.002831     -0.095801
      5.04930      4.37282      0.00000        -0.000591     -0.006286     -0.086687
      0.00000      8.74564      0.00000         0.005419      0.012376     -0.089699
     -1.26233     10.93206      0.00000         0.007807     -0.005840     -0.087779
      1.26233     10.93206      0.00000        -0.001688      0.002476     -0.086171
      2.52465      8.74564      0.00000        -0.004036     -0.004320     -0.110289
     10.09860      0.00000      0.00000         0.002210     -0.005253     -0.084542
      8.83628      2.18641      0.00000        -0.005673     -0.002602     -0.113932
     11.36093      2.18641      0.00000         0.000659     -0.012909     -0.093528
     12.62325      0.00000      0.00000        -0.015363      0.003918     -0.097794
      7.57395      4.37282      0.00000        -0.007229      0.008160     -0.087795
      6.31163      6.55923      0.00000         0.007563      0.009016     -0.099490
      8.83628      6.55923      0.00000        -0.007740      0.008420     -0.092820
     10.09860      4.37282      0.00000        -0.009520      0.007562     -0.101228
      5.04930      8.74564      0.00000         0.008504     -0.000703     -0.093935
      3.78698     10.93206      0.00000        -0.006399      0.000395     -0.106183
      6.31163     10.93206      0.00000        -0.003197     -0.018823     -0.090425
      7.57395      8.74564      0.00000        -0.009127     -0.010310     -0.091872
      2.52468      1.45759      2.06142         0.005004     -0.006828     -0.137139
      1.26235      3.64400      2.06142        -0.007858      0.014408     -0.123443
     -1.26230      3.64400      2.06142         0.009407      0.011173     -0.142020
      0.00003      1.45759      2.06142         0.003005     -0.012392     -0.149536
      0.00003      5.83042      2.06142         0.002461      0.006716     -0.137502
     -1.26230      8.01683      2.06142         0.011475     -0.006308     -0.135934
     -3.78695      8.01683      2.06142         0.001046     -0.004431     -0.151264
     -2.52462      5.83042      2.06142        -0.004703      0.006859     -0.142740
     -2.52462     10.20324      2.06142        -0.004861      0.000501     -0.151737
     -3.78695     12.38965      2.06142         0.006228      0.003611     -0.149869
     -6.31160     12.38965      2.06142         0.001603     -0.002785     -0.143225
     -5.04927     10.20324      2.06142         0.001209      0.009688     -0.156675
      7.57398      1.45759      2.06142        -0.008228      0.007061     -0.149890
      6.31165      3.64400      2.06142        -0.009017     -0.000205     -0.164269
      3.78700      3.64400      2.06142         0.007492      0.003903     -0.122796
      5.04933      1.45759      2.06142         0.001863     -0.001152     -0.149433
      5.04933      5.83042      2.06142         0.008387      0.011407     -0.116217
      3.78700      8.01683      2.06142        -0.008544     -0.001418     -0.164349
      1.26235      8.01683      2.06142         0.002146     -0.002904     -0.159525
      2.52468      5.83042      2.06142        -0.000615      0.024288     -0.120241
      2.52468     10.20324      2.06142         0.013698     -0.002415     -0.134952
      1.26235     12.38965      2.06142        -0.014013      0.002518     -0.119433
     -1.26230     12.38965      2.06142         0.002704      0.008385     -0.127406
      0.00003     10.20324      2.06142         0.005273     -0.013999     -0.136079
[...]
      6.65803      3.09550      8.43709         0.716030      0.400932      1.646846
      4.84406      6.14379      8.38515        -0.266878     -0.063506      1.231790
     -0.00576      6.54165      8.77132         0.895063      0.332234      0.690197
      2.76239     10.18280      8.61348         0.019014     -0.006911      0.137500
      0.51253      9.16991      8.75315         0.012143      0.001436      0.102292
      2.31486      5.24564      8.53656        -0.052155      0.011484      0.293486
      5.71378      6.65641      8.28941         0.445690      0.275465      0.120828
     -0.79257      7.11748      8.49302        -0.334372      0.224304     -0.002748
     -0.08110      5.58724      8.43664        -0.084630     -0.359510     -0.012260
      5.83805      8.67662      9.26758         0.167212     -0.169803     -0.204701
      5.09065     10.06438      8.46452        -0.027552      0.048375      0.141298
      5.72060      8.72833      7.49342         2.165499     -0.444909      1.455774
      7.72025      3.01756      8.18482         0.178223      0.021711      0.211266
      6.48082      2.74204      9.46261        -0.149977     -0.058743      0.038592
      6.05000      2.49866      7.74425        -0.917305     -0.393248      0.864881
    total drift:                               -0.014506     -0.007564     -0.075511

  FREE ENERGIE OF THE ION-ELECTRON SYSTEM (eV)
  free  energy   TOTEN  =      -668.23001036 eV

  energy  without entropy=     -668.19728608  energy(sigma->0) =     -668.21364822

[...]

  free energy =  -0.655518578593E+03  energy without entropy=  -0.655487989773E+03

[...]

 d Force = 0.6321706E+00[ 0.451E+00, 0.813E+00]  d Energy = 0.6286472E+00 0.352E-02
 d Force =-0.2703714E+03[-0.273E+03,-0.268E+03]  d Ewald  =-0.2703885E+03 0.171E-01

 Steepest descent step on ions:
 trial-energy change:   -0.628647  1 .order   -0.632171   -0.813072   -0.451270
  (g-gl).g = 0.813E+00      g.g   = 0.813E+00  gl.gl    = 0.000E+00
 g(Force)  = 0.813E+00   g(Stress)= 0.000E+00 ortho     = 0.000E+00
 gamma     =   0.00000
 trial     =   1.00000
 opt step  =   2.45630  (harmonic =   2.24728) maximal distance =0.07965736
 next E    =  -669.176367   (d E  =  -0.94636)

[...]

 d Force = 0.3181952E+00[-0.208E-01, 0.657E+00]  d Energy = 0.3108180E+00 0.738E-02
 d Force =-0.4013250E+03[-0.406E+03,-0.397E+03]  d Ewald  =-0.4013705E+03 0.455E-01

[...]

 Conjugate gradient step on ions:
 trial-energy change:   -0.393719  1 .order   -0.395326   -0.530458   -0.260193
  (g-gl).g = 0.782E+00      g.g   = 0.768E+00  gl.gl    = 0.813E+00
 g(Force)  = 0.768E+00   g(Stress)= 0.000E+00 ortho     =-0.143E-01
 gamma     =   0.96169
 trial     =   0.70361
 opt step  =   1.43409  (harmonic =   1.38099) maximal distance =0.05429787
 next E    =  -669.696463   (d E  =  -0.52699)

[...]

 d Force = 0.1341279E+00[ 0.105E+00, 0.163E+00]  d Energy = 0.1339518E+00 0.176E-03
 d Force = 0.1278108E+03[ 0.127E+03, 0.129E+03]  d Ewald  = 0.1278095E+03 0.127E-02

[...]

 Conjugate gradient step on ions:
 trial-energy change:   -0.109733  1 .order   -0.109740   -0.136010   -0.083469
  (g-gl).g = 0.183E+00      g.g   = 0.179E+00  gl.gl    = 0.152E+00
 g(Force)  = 0.179E+00   g(Stress)= 0.000E+00 ortho     = 0.609E-03
 gamma     =   1.20133
 trial     =   0.75765
 opt step  =   1.96128  (harmonic =   1.96128) maximal distance =0.06308691
 next E    =  -670.479031   (d E  =  -0.17604)

[...]

 d Force = 0.2474089E-01[-0.371E-03, 0.499E-01]  d Energy = 0.2457170E-01 0.169E-03
 d Force = 0.4479336E+03[ 0.447E+03, 0.449E+03]  d Ewald  = 0.4479337E+03-0.109E-03

[...]

 d Force = 0.3095510E-04[-0.840E-03, 0.902E-03]  d Energy =-0.9038247E-04 0.121E-03
 d Force = 0.7610413E+02[ 0.761E+02, 0.761E+02]  d Ewald  = 0.7610413E+02 0.319E-07

[...]

 d Force = 0.1522440E-04[-0.539E-05, 0.358E-04]  d Energy =-0.1020231E-04 0.254E-04
 d Force = 0.1211071E+02[ 0.121E+02, 0.121E+02]  d Ewald  = 0.1211071E+02 0.860E-06

[...]

 d Force =-0.1537308E-06[-0.143E-05, 0.112E-05]  d Energy =-0.3169023E-05 0.302E-05
 d Force = 0.2202440E+01[ 0.220E+01, 0.220E+01]  d Ewald  = 0.2202440E+01-0.198E-08

[...]

 d Force =-0.1501510E-03[-0.775E-03, 0.475E-03]  d Energy =-0.3252484E-03 0.175E-03
 d Force = 0.1444498E+03[ 0.144E+03, 0.145E+03]  d Ewald  = 0.1444498E+03-0.918E-05

[...]

 Conjugate gradient step on ions:
 trial-energy change:   -0.000148  1 .order   -0.000157   -0.000233   -0.000081
  (g-gl).g = 0.201E-03      g.g   = 0.196E-03  gl.gl    = 0.249E-03
 g(Force)  = 0.196E-03   g(Stress)= 0.000E+00 ortho     = 0.530E-05
 gamma     =   0.81024
 trial     =   1.16345
 opt step  =   1.78124  (harmonic =   1.78124) maximal distance =0.00640991
 next E    =  -672.124690   (d E  =  -0.00018)

[...]

 d Force = 0.5187646E-05[-0.510E-05, 0.155E-04]  d Energy =-0.5000702E-05 0.102E-04
 d Force =-0.1463504E+01[-0.146E+01,-0.146E+01]  d Ewald  =-0.1463505E+01 0.740E-06

[...]

 d Force = 0.3525083E-05[-0.630E-05, 0.133E-04]  d Energy =-0.4461087E-06 0.397E-05
 d Force =-0.1643844E+01[-0.164E+01,-0.164E+01]  d Ewald  =-0.1643845E+01 0.269E-06

[...]

 d Force = 0.6556521E-04[ 0.222E-04, 0.109E-03]  d Energy = 0.6118923E-04 0.438E-05
 d Force =-0.3713346E-01[-0.374E-01,-0.369E-01]  d Ewald  =-0.3713316E-01-0.299E-06

[...]

 d Force = 0.1431346E-05[-0.283E-05, 0.569E-05]  d Energy = 0.3750272E-06 0.106E-05
 d Force =-0.9585732E-02[-0.960E-02,-0.957E-02]  d Ewald  =-0.9585396E-02-0.336E-06

[...]

 d Force = 0.5568865E-05[-0.333E-05, 0.145E-04]  d Energy = 0.3406095E-05 0.216E-05
 d Force = 0.1324846E+01[ 0.132E+01, 0.132E+01]  d Ewald  = 0.1324846E+01-0.271E-06

[...]

 eigenvalue-minimisations  :  5648
 total energy-change (2. order) :-0.2899033E-06  (-0.4436817E-06)
 number of electron    1653.9999238 magnetization
 augmentation part     1012.9794377 magnetization

[...]

 eigenvalues of (default mixing * dielectric matrix)
  average eigenvalue GAMMA=   1.0095
  2.0562  0.7678  0.2045

[...]

--------------------------------------- Iteration    260(   5)  ---------------------------------------

 eigenvalue-minimisations  :  5490
 total energy-change (2. order) : 0.1679407E-05  (-0.2791874E-06)
 number of electron    1653.9999238 magnetization
 augmentation part     1012.9794377 magnetization

 DIPCOR: dipole corrections for dipol
 direction  3 min pos   154,
 dipolmoment           0.000000      0.000000     -0.486572 electrons x Angstroem
 Tr[quadrupol]    -66637.752009

 energy correction for charged system         0.000000 eV
 dipol+quadrupol energy correction           -0.005113 eV
 added-field ion interaction        -17.446359 eV  (added to PSCEN)

  free energy =  -0.659512917113E+03  energy without entropy=  -0.659462388543E+03

------------------------ aborting loop because EDIFF is reached ----------------------------------------

  Number of pair interactions contributing to vdW energy:  899581
  Edisp (eV):  -12.61344

  FORCE on cell =-STRESS in cart. coord.  units (eV):
  Direction    XX          YY          ZZ          XY          YZ          ZX
  Alpha Z  3880.85270  3880.85270  3880.85270
  Ewald  693922.06500693857.58216************  -752.77229  -279.20848   507.16499
  Hartree747668.51416747652.93455************  -705.79074  -206.32111   351.82917
  E(xc)   -9527.33461 -9527.48809 -9551.10312     0.03207    -0.29562     0.65849
  Local  ************************************  1462.98412   478.96081  -843.03434
  n-local -3181.04816 -3180.02897 -3272.19267    -1.90284    -0.30691     0.30580
  augment 13623.96955 13624.35165 13693.65971    -0.17103     0.09157    -0.38181
  Kinetic 14012.34302 14010.30715 14239.40020    -2.60182     6.86258   -16.37385
  Fock        0.00000     0.00000     0.00000     0.00000     0.00000     0.00000
  vdW       -16.60976   -16.52762   -13.37619    -0.01579     0.01937    -0.01214
  Total      10.87114    11.41998    -4.43393    -0.23834    -0.19778     0.15631
  in kB       4.13754     4.34643    -1.68755    -0.09071    -0.07528     0.05949

  FREE ENERGIE OF THE ION-ELECTRON SYSTEM (eV)
  free  energy   TOTEN  =      -672.12635557 eV

  energy  without entropy=     -672.07582701  energy(sigma->0) =     -672.10109129

 d Force = 0.3461528E-04[ 0.189E-04, 0.504E-04]  d Energy = 0.3258430E-04 0.203E-05
 d Force = 0.1890530E+01[ 0.189E+01, 0.189E+01]  d Ewald  = 0.1890530E+01 0.214E-06

 Conjugate gradient step on ions:
 trial-energy change:   -0.000033  1 .order   -0.000035   -0.000050   -0.000019
  (g-gl).g = 0.518E-04      g.g   = 0.533E-04  gl.gl    = 0.950E-04
 g(Force)  = 0.533E-04   g(Stress)= 0.000E+00 ortho     =-0.692E-05
 gamma     =   0.54492
 trial     =   1.01796
 opt step  =   1.62656  (harmonic =   1.62656) maximal distance =0.00148674
 next E    =  -672.126363   (d E  =  -0.00004)

 reached required accuracy - stopping structural energy minimisation