 vasp.5.4.4.18Apr17-6-g9f103f2a35 (build Jun 30 2017 19:19:18) complex

 executed on         MareNostrum4 date 2022.04.13  16:55:17

 INCAR:
 POTCAR:    PAW_PBE Cu 22Jun2005

 POTCAR:    PAW_PBE Cu 22Jun2005

 Optimization of the real space projectors (new method)

 maximal supplied QI-value         = 16.25
 optimisation between [QCUT,QGAM] = [ 10.73, 21.61] = [ 32.22,130.83] Ry
 Optimized for a Real-space Cutoff    1.42 Angstroem

   l    n(q)    QCUT    max X(q) W(low)/X(q) W(high)/X(q)  e(spline)
   2      8    10.726     4.610    0.15E-03    0.25E-03    0.14E-06
   2      8    10.726     8.522    0.25E-03    0.43E-03    0.27E-06
   0      9    10.726    51.609    0.94E-04    0.10E-03    0.12E-06
   0      9    10.726    27.747    0.85E-04    0.96E-04    0.11E-06
   1      9    10.726    20.408    0.25E-03    0.14E-03    0.12E-06
   1      9    10.726    13.425    0.22E-03    0.13E-03    0.11E-06
  PAW_PBE Cu 22Jun2005                  :

 POSCAR: Cu
  positions in cartesian coordinates
 exchange correlation table for  LEXCH =        8
   RHO(1)=    0.500       N(1)  =     2000
   RHO(2)=  100.500       N(2)  =     4000

 ion  position               nearest neighbor table
   1  0.000  0.000  0.000-   2 2.52   3 2.52   4 2.52  28 2.52  10 2.52  35 2.52  70 2.52  40 2.52
                            47 2.52
   2  0.000  0.167  0.000-   3 2.52   1 2.52   8 2.52  28 2.52   5 2.52  27 2.52  39 2.52  61 2.52
                            40 2.52
   3  0.167  0.167  0.000-   2 2.52   1 2.52   8 2.52  14 2.52   4 2.52  17 2.52  38 2.52  40 2.52
                            37 2.52
   4  0.167  0.000  0.000-  10 2.52  14 2.52   1 2.52  13 2.52   3 2.52  11 2.52  47 2.52  37 2.52
                            46 2.52
   5  0.000  0.333  0.000-   6 2.52   8 2.52  32 2.52   7 2.52  27 2.52   2 2.52  62 2.52  44 2.52
                            39 2.52
   6  0.000  0.500  0.000-  12 2.52   5 2.52   7 2.52   9 2.52  32 2.52  31 2.52  43 2.52  65 2.52
                            44 2.52
   7  0.167  0.500  0.000-  18 2.52   8 2.52  21 2.52   6 2.52   5 2.52  12 2.52  42 2.52  44 2.52
                            41 2.52
   8  0.167  0.333  0.000-   7 2.52   2 2.52  18 2.52   3 2.52   5 2.52  17 2.52  39 2.52  41 2.52
                            38 2.52
   9  0.000  0.667  0.000-  10 2.52  12 2.52  36 2.52  31 2.52   6 2.52  11 2.52  66 2.52  48 2.52
                            43 2.52
  10  0.000  0.833  0.000-   4 2.52   9 2.52  11 2.52   1 2.52  36 2.52  35 2.52  47 2.52  69 2.52
                            48 2.52
  11  0.167  0.833  0.000-  22 2.52  13 2.52  12 2.52  10 2.52   4 2.52   9 2.52  46 2.52  48 2.52
                            45 2.52
  12  0.167  0.667  0.000-   6 2.52  11 2.52  22 2.52   9 2.52  21 2.52   7 2.52  43 2.52  45 2.52
                            42 2.52
  13  0.333  0.000  0.000-  15 2.52  22 2.52  11 2.52  16 2.52   4 2.52  14 2.52  46 2.52  52 2.52
                            59 2.52
  14  0.333  0.167  0.000-   4 2.52  17 2.52  15 2.52   3 2.52  13 2.52  20 2.52  37 2.52  51 2.52
                            52 2.52
  15  0.500  0.167  0.000-  13 2.52  20 2.52  14 2.52  26 2.52  16 2.52  29 2.52  50 2.52  52 2.52
                            49 2.52
  16  0.500  0.000  0.000-  26 2.52  25 2.52  13 2.52  23 2.52  15 2.52  22 2.52  59 2.52  49 2.52
                            58 2.52
  17  0.333  0.333  0.000-  14 2.52  20 2.52   8 2.52  19 2.52  18 2.52   3 2.52  38 2.52  56 2.52
                            51 2.52
  18  0.333  0.500  0.000-   7 2.52  21 2.52   8 2.52  17 2.52  24 2.52  19 2.52  41 2.52  55 2.52
                            56 2.52
  19  0.500  0.500  0.000-  30 2.52  33 2.52  20 2.52  17 2.52  24 2.52  18 2.52  54 2.52  56 2.52
                            53 2.52
  20  0.500  0.333  0.000-  19 2.52  30 2.52  15 2.52  29 2.52  17 2.52  14 2.52  51 2.52  53 2.52
                            50 2.52
  21  0.333  0.667  0.000-  18 2.52   7 2.52  24 2.52  12 2.52  23 2.52  22 2.52  42 2.52  60 2.52
                            55 2.52
  22  0.333  0.833  0.000-  11 2.52  13 2.52  12 2.52  16 2.52  21 2.52  23 2.52  45 2.52  59 2.52
                            60 2.52
  23  0.500  0.833  0.000-  34 2.52  25 2.52  24 2.52  16 2.52  21 2.52  22 2.52  58 2.52  60 2.52
                            57 2.52
  24  0.500  0.667  0.000-  23 2.52  34 2.52  33 2.52  21 2.52  18 2.52  19 2.52  55 2.52  57 2.52
                            54 2.52
  25  0.667  0.000  0.000-  23 2.52  27 2.52  34 2.52  16 2.52  28 2.52  26 2.52  58 2.52  64 2.52
                            71 2.52
  26  0.667  0.167  0.000-  16 2.52  29 2.52  27 2.52  15 2.52  25 2.52  32 2.52  49 2.52  63 2.52
                            64 2.52
  27  0.833  0.167  0.000-  25 2.52  32 2.52  26 2.52  28 2.52   5 2.52   2 2.52  62 2.52  64 2.52
                            61 2.52
  28  0.833  0.000  0.000-  35 2.52   1 2.52  25 2.52  27 2.52  34 2.52   2 2.52  71 2.52  61 2.52
                            70 2.52
  29  0.667  0.333  0.000-  31 2.52  26 2.52  20 2.52  32 2.52  30 2.52  15 2.52  50 2.52  68 2.52
                            63 2.52
  30  0.667  0.500  0.000-  19 2.52  20 2.52  33 2.52  31 2.52  29 2.52  36 2.52  53 2.52  67 2.52
                            68 2.52
  31  0.833  0.500  0.000-  36 2.52  29 2.52  30 2.52  32 2.52   9 2.52   6 2.52  66 2.52  68 2.52
                            65 2.52
  32  0.833  0.333  0.000-  27 2.52   5 2.52  29 2.52   6 2.52  31 2.52  26 2.52  63 2.52  65 2.52
                            62 2.52
  33  0.667  0.667  0.000-  19 2.52  30 2.52  35 2.52  24 2.52  36 2.52  34 2.52  54 2.52  72 2.52
                            67 2.52
  34  0.667  0.833  0.000-  23 2.52  25 2.52  24 2.52  35 2.52  28 2.52  33 2.52  57 2.52  71 2.52
                            72 2.52
  35  0.833  0.833  0.000-  28 2.52  33 2.52  34 2.52   1 2.52  36 2.52  10 2.52  70 2.52  72 2.52
                            69 2.52
  36  0.833  0.667  0.000-  31 2.52   9 2.52  33 2.52  30 2.52  10 2.52  35 2.52  67 2.52  69 2.52
                            66 2.52
  37  0.222  0.111  0.097-  75 2.52  76 2.52  74 2.52  51 2.52  52 2.52  38 2.52  46 2.52  40 2.52
                            47 2.52  14 2.52   4 2.52   3 2.52
  38  0.222  0.278  0.097-  76 2.52  73 2.52  79 2.52  37 2.52  51 2.52  40 2.52  56 2.52  39 2.52
                            41 2.52   3 2.52  17 2.52   8 2.52
  39  0.056  0.278  0.097-  73 2.52 100 2.52  78 2.52  40 2.52  61 2.52  62 2.52  38 2.52  41 2.52
                            44 2.52   2 2.52   8 2.52   5 2.52
  40  0.056  0.111  0.097-  74 2.52  99 2.52  73 2.52  39 2.52  61 2.52  38 2.52  70 2.52  37 2.52
                            47 2.52   3 2.52   1 2.52   2 2.52
  41  0.222  0.444  0.097-  79 2.52  80 2.52  78 2.52  55 2.52  56 2.52  42 2.52  38 2.52  44 2.52
                            39 2.52  18 2.52   8 2.52   7 2.52
  42  0.222  0.611  0.097-  80 2.52  77 2.52  83 2.52  41 2.52  55 2.52  44 2.52  60 2.52  43 2.52
                            45 2.52   7 2.52  21 2.52  12 2.52
  43  0.056  0.611  0.097-  77 2.52 104 2.52  82 2.52  44 2.52  65 2.52  66 2.52  42 2.52  48 2.52
                            45 2.52   6 2.52  12 2.52   9 2.52
  44  0.056  0.444  0.097-  78 2.52 103 2.52  77 2.52  43 2.52  65 2.52  42 2.52  62 2.52  41 2.52
                            39 2.52   7 2.52   5 2.52   6 2.52
  45  0.222  0.778  0.097-  83 2.52  84 2.52  82 2.52  59 2.52  60 2.52  46 2.52  42 2.52  48 2.52
                            43 2.52  22 2.52  12 2.52  11 2.52
  46  0.222  0.944  0.097-  84 2.52  81 2.52  75 2.52  45 2.52  59 2.52  48 2.52  52 2.52  47 2.52
                            37 2.52  11 2.52  13 2.52   4 2.52
  47  0.056  0.944  0.097-  81 2.52 108 2.52  74 2.52  69 2.52  48 2.52  70 2.52  46 2.52  40 2.52
                            37 2.52  10 2.52   4 2.52   1 2.52
  48  0.056  0.778  0.097-  82 2.52 107 2.52  81 2.52  47 2.52  69 2.52  46 2.52  66 2.52  45 2.52
                            43 2.52  11 2.52   9 2.52  10 2.52
  49  0.556  0.111  0.097-  87 2.52  88 2.52  86 2.52  63 2.52  64 2.52  50 2.52  58 2.52  52 2.52
                            59 2.52  26 2.52  16 2.52  15 2.52
  50  0.556  0.278  0.097-  88 2.52  85 2.52  91 2.52  49 2.52  63 2.52  52 2.52  68 2.52  51 2.52
                            53 2.52  15 2.52  29 2.52  20 2.52
  51  0.389  0.278  0.097-  85 2.52  76 2.52  90 2.52  37 2.52  52 2.52  38 2.52  50 2.52  56 2.52
                            53 2.52  14 2.52  20 2.52  17 2.52
  52  0.389  0.111  0.097-  86 2.52  75 2.52  85 2.52  51 2.52  37 2.52  50 2.52  46 2.52  49 2.52
                            59 2.52  15 2.52  13 2.52  14 2.52
  53  0.556  0.444  0.097-  91 2.52  92 2.52  90 2.52  67 2.52  68 2.52  54 2.52  50 2.52  56 2.52
                            51 2.52  30 2.52  20 2.52  19 2.52
  54  0.556  0.611  0.097-  92 2.52  89 2.52  95 2.52  53 2.52  67 2.52  56 2.52  72 2.52  55 2.52
                            57 2.52  19 2.52  33 2.52  24 2.52
  55  0.389  0.611  0.097-  89 2.52  80 2.52  94 2.52  41 2.52  56 2.52  42 2.52  54 2.52  60 2.52
                            57 2.52  18 2.52  24 2.52  21 2.52
  56  0.389  0.444  0.097-  90 2.52  79 2.52  89 2.52  55 2.52  41 2.52  54 2.52  38 2.52  53 2.52
                            51 2.52  19 2.52  17 2.52  18 2.52
  57  0.556  0.778  0.097-  95 2.52  96 2.52  94 2.52  71 2.52  72 2.52  58 2.52  54 2.52  60 2.52
                            55 2.52  34 2.52  24 2.52  23 2.52
  58  0.556  0.944  0.097-  96 2.52  93 2.52  87 2.52  57 2.52  71 2.52  60 2.52  64 2.52  59 2.52
                            49 2.52  23 2.52  25 2.52  16 2.52
  59  0.389  0.944  0.097-  93 2.52  84 2.52  86 2.52  45 2.52  60 2.52  46 2.52  58 2.52  52 2.52
                            49 2.52  22 2.52  16 2.52  13 2.52
  60  0.389  0.778  0.097-  94 2.52  83 2.52  93 2.52  59 2.52  45 2.52  58 2.52  42 2.52  57 2.52
                            55 2.52  23 2.52  21 2.52  22 2.52
  61  0.889  0.111  0.097-  99 2.52 100 2.52  98 2.52  39 2.52  40 2.52  62 2.52  70 2.52  64 2.52
                            71 2.52   2 2.52  28 2.52  27 2.52
  62  0.889  0.278  0.097- 100 2.52  97 2.52 103 2.52  61 2.52  39 2.52  64 2.52  44 2.52  63 2.52
                            65 2.52  27 2.52   5 2.52  32 2.52
  63  0.722  0.278  0.097-  97 2.52  88 2.52 102 2.52  64 2.52  49 2.52  50 2.52  62 2.52  65 2.52
                            68 2.52  26 2.52  32 2.52  29 2.52
  64  0.722  0.111  0.097-  98 2.52  87 2.52  97 2.52  63 2.52  49 2.52  62 2.52  58 2.52  61 2.52
                            71 2.52  27 2.52  25 2.52  26 2.52
  65  0.889  0.444  0.097- 103 2.52 104 2.52 102 2.52  43 2.52  44 2.52  66 2.52  62 2.52  68 2.52
                            63 2.52   6 2.52  32 2.52  31 2.52
  66  0.889  0.611  0.097- 104 2.52 101 2.52 107 2.52  65 2.52  43 2.52  68 2.52  48 2.52  67 2.52
                            69 2.52  31 2.52   9 2.52  36 2.52
  67  0.722  0.611  0.097- 101 2.52  92 2.52 106 2.52  68 2.52  53 2.52  54 2.52  66 2.52  72 2.52
                            69 2.52  30 2.52  36 2.52  33 2.52
  68  0.722  0.444  0.097- 102 2.52  91 2.52 101 2.52  67 2.52  53 2.52  66 2.52  50 2.52  65 2.52
[...]
   -.144E-02 0.185E-03 0.362E+04   0.545E-03 -.337E-03 -.362E+04   0.521E-17 -.192E-17 -.199E+01   0.889E-08 -.352E-09 0.162E-02
   -.930E-03 -.762E-03 0.362E+04   0.549E-03 -.317E-03 -.362E+04   0.328E-17 -.325E-17 -.199E+01   0.445E-08 0.737E-08 0.162E-02
   0.186E-03 0.118E-02 0.362E+04   0.564E-03 -.303E-03 -.362E+04   0.143E-17 0.361E-17 -.199E+01   -.412E-08 -.752E-08 0.162E-02
   -.342E-03 0.198E-03 0.362E+04   0.560E-03 -.323E-03 -.362E+04   -.184E-18 0.239E-17 -.199E+01   0.314E-09 -.183E-09 0.162E-02
   -.927E-03 -.750E-03 0.362E+04   0.545E-03 -.337E-03 -.362E+04   -.106E-17 0.137E-17 -.199E+01   0.445E-08 0.733E-08 0.162E-02
   -.365E-03 0.210E-03 0.362E+04   0.549E-03 -.317E-03 -.362E+04   0.260E-17 0.355E-17 -.199E+01   0.270E-09 -.157E-09 0.162E-02
   -.605E-03 0.174E-02 0.121E+04   -.173E-02 0.864E-03 -.121E+04   0.301E-17 0.786E-17 -.512E+00   -.161E-07 -.272E-08 0.458E-02
   -.193E-02 0.112E-02 0.121E+04   -.175E-02 0.101E-02 -.121E+04   0.171E-17 0.167E-17 -.512E+00   -.372E-08 0.215E-08 0.458E-02
   -.155E-02 0.109E-02 0.121E+04   -.161E-02 0.106E-02 -.121E+04   0.106E-17 0.597E-17 -.512E+00   -.776E-08 0.218E-08 0.458E-02
   -.177E-02 0.245E-02 0.121E+04   -.159E-02 0.920E-03 -.121E+04   0.447E-17 0.111E-16 -.512E+00   -.567E-08 -.111E-07 0.458E-02
   -.171E-02 0.797E-03 0.121E+04   -.173E-02 0.864E-03 -.121E+04   0.151E-16 -.568E-17 -.512E+00   -.577E-08 0.564E-08 0.458E-02
   -.601E-03 0.166E-02 0.121E+04   -.175E-02 0.101E-02 -.121E+04   -.105E-17 -.367E-17 -.512E+00   -.161E-07 -.262E-08 0.458E-02
   -.177E-02 0.238E-02 0.121E+04   -.161E-02 0.106E-02 -.121E+04   0.141E-16 -.450E-17 -.512E+00   -.569E-08 -.110E-07 0.458E-02
   -.584E-03 0.337E-03 0.121E+04   -.159E-02 0.920E-03 -.121E+04   0.228E-16 -.318E-17 -.512E+00   -.182E-07 0.105E-07 0.458E-02
   -.194E-02 0.119E-02 0.121E+04   -.173E-02 0.864E-03 -.121E+04   -.124E-16 -.176E-16 -.512E+00   -.370E-08 0.204E-08 0.458E-02
   -.171E-02 0.719E-03 0.121E+04   -.175E-02 0.101E-02 -.121E+04   0.129E-16 -.163E-16 -.512E+00   -.579E-08 0.574E-08 0.458E-02
   -.580E-03 0.260E-03 0.121E+04   -.161E-02 0.106E-02 -.121E+04   0.119E-16 -.172E-16 -.512E+00   -.182E-07 0.106E-07 0.458E-02
   -.155E-02 0.116E-02 0.121E+04   -.159E-02 0.920E-03 -.121E+04   -.157E-16 -.171E-16 -.512E+00   -.774E-08 0.207E-08 0.458E-02
   -.170E-02 0.249E-02 0.121E+04   -.173E-02 0.864E-03 -.121E+04   -.119E-18 -.459E-17 -.512E+00   -.578E-08 -.112E-07 0.458E-02
   -.148E-02 0.112E-02 0.121E+04   -.175E-02 0.101E-02 -.121E+04   0.515E-18 0.764E-17 -.512E+00   -.787E-08 0.215E-08 0.458E-02
   -.181E-02 -.345E-03 0.121E+04   -.161E-02 0.106E-02 -.121E+04   -.421E-18 0.279E-17 -.512E+00   -.570E-08 0.153E-07 0.458E-02
   -.291E-02 0.168E-02 0.121E+04   -.159E-02 0.920E-03 -.121E+04   0.739E-17 -.187E-17 -.512E+00   0.466E-08 -.269E-08 0.458E-02
   -.515E-03 0.373E-03 0.121E+04   -.173E-02 0.864E-03 -.121E+04   0.159E-16 0.363E-17 -.512E+00   -.183E-07 0.105E-07 0.458E-02
   -.170E-02 0.241E-02 0.121E+04   -.175E-02 0.101E-02 -.121E+04   0.408E-17 -.109E-16 -.512E+00   -.580E-08 -.111E-07 0.458E-02
   -.291E-02 0.160E-02 0.121E+04   -.161E-02 0.106E-02 -.121E+04   0.317E-17 -.723E-17 -.512E+00   0.464E-08 -.259E-08 0.458E-02
   -.301E-02 0.307E-03 0.121E+04   -.159E-02 0.920E-03 -.121E+04   0.203E-16 0.137E-17 -.512E+00   0.681E-08 0.105E-07 0.458E-02
   -.148E-02 0.120E-02 0.121E+04   -.173E-02 0.864E-03 -.121E+04   -.159E-16 -.129E-16 -.512E+00   -.785E-08 0.204E-08 0.458E-02
   -.511E-03 0.295E-03 0.121E+04   -.175E-02 0.101E-02 -.121E+04   0.168E-16 -.165E-16 -.512E+00   -.183E-07 0.106E-07 0.458E-02
   -.301E-02 0.230E-03 0.121E+04   -.161E-02 0.106E-02 -.121E+04   0.149E-16 -.148E-16 -.512E+00   0.679E-08 0.106E-07 0.458E-02
   -.181E-02 -.268E-03 0.121E+04   -.159E-02 0.920E-03 -.121E+04   -.146E-16 -.184E-16 -.512E+00   -.567E-08 0.152E-07 0.458E-02
[...]
   0.113E-02 -.159E-02 -.362E+04   -.564E-03 0.303E-03 0.362E+04   -.574E-17 -.467E-17 0.199E+01   -.592E-08 0.997E-08 0.163E-02
   -.423E-03 0.118E-02 -.362E+04   -.560E-03 0.323E-03 0.362E+04   -.448E-17 0.512E-17 0.199E+01   0.523E-08 -.932E-08 0.163E-02
   0.194E-02 -.182E-03 -.362E+04   -.545E-03 0.337E-03 0.362E+04   -.378E-17 0.316E-17 0.199E+01   -.116E-07 0.144E-09 0.163E-02
   0.116E-02 0.119E-02 -.362E+04   -.549E-03 0.317E-03 0.362E+04   0.299E-18 0.245E-17 0.199E+01   -.616E-08 -.934E-08 0.163E-02
   0.341E-03 -.182E-03 -.362E+04   -.564E-03 0.303E-03 0.362E+04   -.382E-18 0.352E-17 0.199E+01   -.466E-09 0.225E-09 0.163E-02
   -.123E-02 -.225E-03 -.362E+04   -.560E-03 0.323E-03 0.362E+04   -.504E-17 0.392E-17 0.199E+01   0.107E-07 0.127E-09 0.163E-02
   0.366E-03 -.225E-03 -.362E+04   -.545E-03 0.337E-03 0.362E+04   0.352E-18 0.174E-17 0.199E+01   -.449E-09 0.302E-09 0.163E-02
   0.194E-02 -.170E-03 -.362E+04   -.549E-03 0.317E-03 0.362E+04   -.327E-17 -.440E-17 0.199E+01   -.116E-07 0.102E-09 0.163E-02
   -.123E-02 -.212E-03 -.362E+04   -.564E-03 0.303E-03 0.362E+04   -.345E-17 -.626E-17 0.199E+01   0.107E-07 0.854E-10 0.163E-02
   -.444E-03 -.160E-02 -.362E+04   -.560E-03 0.323E-03 0.362E+04   -.142E-17 0.293E-18 0.199E+01   0.497E-08 0.100E-07 0.163E-02
   0.116E-02 0.118E-02 -.362E+04   -.545E-03 0.337E-03 0.362E+04   -.775E-17 0.159E-17 0.199E+01   -.616E-08 -.929E-08 0.163E-02
   0.369E-03 -.213E-03 -.362E+04   -.549E-03 0.317E-03 0.362E+04   -.525E-17 -.559E-17 0.199E+01   -.450E-09 0.258E-09 0.163E-02
   -.441E-03 -.159E-02 -.362E+04   -.564E-03 0.303E-03 0.362E+04   -.571E-17 -.221E-17 0.199E+01   0.497E-08 0.998E-08 0.163E-02
   0.338E-03 -.195E-03 -.362E+04   -.560E-03 0.323E-03 0.362E+04   -.559E-17 0.311E-17 0.199E+01   -.466E-09 0.269E-09 0.163E-02
   -.643E-05 0.374E-05 -.451E+00   0.146E-11 -.151E-11 0.909E-10   -.985E-16 -.360E-15 -.392E-01   -.568E-07 0.328E-07 0.446E+00

 POSITION                                       TOTAL-FORCE (eV/Angst)
      0.00000      0.00000      0.00000         0.000000      0.000000     -0.078625
     -1.26233      2.18641      0.00000         0.000000      0.000000     -0.078625
      1.26233      2.18641      0.00000         0.000000      0.000000     -0.078625
      2.52465      0.00000      0.00000         0.000000      0.000000     -0.078625
     -2.52465      4.37282      0.00000         0.000000      0.000000     -0.078625
     -3.78698      6.55923      0.00000         0.000000      0.000000     -0.078625
     -1.26233      6.55923      0.00000         0.000000      0.000000     -0.078625
     -0.00000      4.37282      0.00000         0.000000      0.000000     -0.078625
     -5.04930      8.74564      0.00000         0.000000      0.000000     -0.078625
     -6.31163     10.93206      0.00000         0.000000      0.000000     -0.078625
     -3.78698     10.93206      0.00000         0.000000      0.000000     -0.078625
     -2.52465      8.74564      0.00000         0.000000      0.000000     -0.078625
      5.04930      0.00000      0.00000         0.000000      0.000000     -0.078625
      3.78698      2.18641      0.00000         0.000000      0.000000     -0.078625
      6.31163      2.18641      0.00000         0.000000      0.000000     -0.078625
      7.57395      0.00000      0.00000         0.000000      0.000000     -0.078625
      2.52465      4.37282      0.00000         0.000000      0.000000     -0.078625
      1.26233      6.55923      0.00000         0.000000      0.000000     -0.078625
      3.78698      6.55923      0.00000         0.000000      0.000000     -0.078625
      5.04930      4.37282      0.00000         0.000000      0.000000     -0.078625
      0.00000      8.74564      0.00000         0.000000      0.000000     -0.078625
     -1.26233     10.93206      0.00000         0.000000      0.000000     -0.078625
      1.26233     10.93206      0.00000         0.000000      0.000000     -0.078625
      2.52465      8.74564      0.00000         0.000000      0.000000     -0.078625
     10.09860      0.00000      0.00000         0.000000      0.000000     -0.078625
      8.83628      2.18641      0.00000         0.000000      0.000000     -0.078625
     11.36093      2.18641      0.00000         0.000000      0.000000     -0.078625
     12.62325      0.00000      0.00000         0.000000      0.000000     -0.078625
      7.57395      4.37282      0.00000         0.000000      0.000000     -0.078625
      6.31163      6.55923      0.00000         0.000000      0.000000     -0.078625
      8.83628      6.55923      0.00000         0.000000      0.000000     -0.078625
     10.09860      4.37282      0.00000         0.000000      0.000000     -0.078625
      5.04930      8.74564      0.00000         0.000000     -0.000000     -0.078625
      3.78698     10.93206      0.00000         0.000000      0.000000     -0.078625
      6.31163     10.93206      0.00000         0.000000      0.000000     -0.078625
      7.57395      8.74564      0.00000         0.000000      0.000000     -0.078625
      2.52468      1.45759      2.06142         0.000000     -0.000000     -0.028777
      1.26235      3.64400      2.06142         0.000000     -0.000000     -0.028777
     -1.26230      3.64400      2.06142         0.000000     -0.000000     -0.028777
      0.00003      1.45759      2.06142        -0.000000     -0.000000     -0.028777
      0.00003      5.83042      2.06142        -0.000000      0.000000     -0.028777
     -1.26230      8.01683      2.06142        -0.000000      0.000000     -0.028777
     -3.78695      8.01683      2.06142        -0.000000     -0.000000     -0.028777
     -2.52462      5.83042      2.06142        -0.000000     -0.000000     -0.028777
     -2.52462     10.20324      2.06142         0.000000      0.000000     -0.028777
     -3.78695     12.38965      2.06142        -0.000000     -0.000000     -0.028777
     -6.31160     12.38965      2.06142        -0.000000      0.000000     -0.028777
     -5.04927     10.20324      2.06142         0.000000      0.000000     -0.028777
      7.57398      1.45759      2.06142        -0.000000     -0.000000     -0.028777
      6.31165      3.64400      2.06142        -0.000000      0.000000     -0.028777
      3.78700      3.64400      2.06142         0.000000     -0.000000     -0.028777
      5.04933      1.45759      2.06142        -0.000000     -0.000000     -0.028777
      5.04933      5.83042      2.06142        -0.000000     -0.000000     -0.028777
      3.78700      8.01683      2.06142        -0.000000     -0.000000     -0.028777
      1.26235      8.01683      2.06142        -0.000000     -0.000000     -0.028777
      2.52468      5.83042      2.06142        -0.000000     -0.000000     -0.028777
      2.52468     10.20324      2.06142         0.000000     -0.000000     -0.028777
      1.26235     12.38965      2.06142        -0.000000      0.000000     -0.028777
     -1.26230     12.38965      2.06142        -0.000000      0.000000     -0.028777
      0.00003     10.20324      2.06142         0.000000      0.000000     -0.028777
[...]
     -1.26233     10.93206      6.18403        -0.000000      0.000000      0.083182
      1.26233     10.93206      6.18403         0.000000      0.000000      0.083182
      2.52465      8.74564      6.18403         0.000000     -0.000000      0.083182
     10.09860      0.00000      6.18403         0.000000      0.000000      0.083182
      8.83628      2.18641      6.18403         0.000000      0.000000      0.083182
     11.36093      2.18641      6.18403         0.000000      0.000000      0.083182
     12.62325      0.00000      6.18403         0.000000      0.000000      0.083182
      7.57395      4.37282      6.18403        -0.000000      0.000000      0.083182
      6.31163      6.55923      6.18403        -0.000000      0.000000      0.083182
      8.83628      6.55923      6.18403        -0.000000      0.000000      0.083182
     10.09860      4.37282      6.18403         0.000000      0.000000      0.083182
      5.04930      8.74564      6.18403         0.000000      0.000000      0.083182
      3.78698     10.93206      6.18403         0.000000      0.000000      0.083182
      6.31163     10.93206      6.18403         0.000000      0.000000      0.083182
      7.57395      8.74564      6.18403         0.000000      0.000000      0.083182
    total drift:                               -0.000006      0.000004     -0.043732

  FREE ENERGIE OF THE ION-ELECTRON SYSTEM (eV)
  free  energy   TOTEN  =      -514.51392584 eV

  energy  without entropy=     -514.47703277  energy(sigma->0) =     -514.49547931

 Quasi-Newton relaxation of ions (Broydens 2nd method)
  g(Force)  = 0.652E-02   g(Stress)= 0.000E+00

 Reset! Starting new Quasi-Newton update for ions

[...]

  free energy =  -0.503239947593E+03  energy without entropy=  -0.503201875479E+03

[...]

 d Force = 0.6317198E-02[ 0.612E-02, 0.652E-02]  d Energy = 0.6234163E-02 0.830E-04
 d Force = 0.2868129E+03[ 0.287E+03, 0.287E+03]  d Ewald  = 0.2868129E+03-0.118E-05

[...]

 retain information from N=  1 steps
 eigenvalues of (default step * inverse Hessian matrix)
  average eigenvalue of G=   8.9563
 eigenvalue spectrum of G is  8.9563

[...]

 d Force = 0.5319214E-03[ 0.107E-03, 0.956E-03]  d Energy = 0.8481289E-04 0.447E-03
 d Force = 0.4965911E+03[ 0.496E+03, 0.497E+03]  d Ewald  = 0.4965911E+03-0.509E-05

[...]

 d Force =-0.4293049E-03[-0.110E-02, 0.246E-03]  d Energy =-0.9486022E-03 0.519E-03
 d Force = 0.5941970E+03[ 0.594E+03, 0.594E+03]  d Ewald  = 0.5941970E+03-0.104E-04

[...]

 d Force = 0.5205436E-04[ 0.468E-04, 0.573E-04]  d Energy = 0.5886161E-04-0.681E-05
 d Force =-0.1392579E+02[-0.139E+02,-0.139E+02]  d Ewald  =-0.1392579E+02 0.582E-09

[...]

 eigenvalue-minimisations  :  3185
 total energy-change (2. order) : 0.1798617E-07  (-0.1438926E-06)
 number of electron    1583.9998963 magnetization
 augmentation part     1010.1284031 magnetization

[...]

 eigenvalues of (default mixing * dielectric matrix)
  average eigenvalue GAMMA=   0.4166
  0.5287  0.5287  0.1924

[...]

--------------------------------------- Iteration     12(   5)  ---------------------------------------

 eigenvalue-minimisations  :  3038
 total energy-change (2. order) :-0.2421439E-07  (-0.3957811E-07)
 number of electron    1583.9998963 magnetization
 augmentation part     1010.1284031 magnetization

 DIPCOR: dipole corrections for dipol
 direction  3 min pos   148,
 dipolmoment           0.000000      0.000000      0.010276 electrons x Angstroem
 Tr[quadrupol]    -61676.618483

 energy correction for charged system         0.000000 eV
 dipol+quadrupol energy correction           -0.000002 eV
 added-field ion interaction          0.140238 eV  (added to PSCEN)

  free energy =  -0.503388853440E+03  energy without entropy=  -0.503331570351E+03

------------------------ aborting loop because EDIFF is reached ----------------------------------------

  Number of pair interactions contributing to vdW energy:  648756
  Edisp (eV):  -11.19157

  FORCE on cell =-STRESS in cart. coord.  units (eV):
  Direction    XX          YY          ZZ          XY          YZ          ZX
  Alpha Z  3602.41478  3602.41478  3602.41478
  Ewald  720703.59584720703.60007************     0.00366     0.00145    -0.00251
  Hartree772908.86142772908.86334************     0.00166     0.00066    -0.00114
  E(xc)   -9253.03970 -9253.03801 -9272.62024     0.00147    -0.00002     0.00003
  Local  ************************************    -0.08169    -0.00205     0.00355
  n-local -3041.24686 -3038.91016 -3130.36915    -2.03212     1.25455     2.16966
  augment 13610.38793 13610.46799 13680.73685     0.06933    -0.00014     0.00021
  Kinetic 12910.14813 12914.88660 13008.29948    -4.10873     2.61224     4.52579
  Fock        0.00000     0.00000     0.00000     0.00000     0.00000     0.00000
  vdW       -15.67487   -15.67488   -10.84215    -0.00000     0.00000    -0.00001
  Total      10.95614    10.95614    -3.72932    -0.00000     0.00000     0.00000
  in kB       4.16989     4.16989    -1.41937    -0.00000     0.00000     0.00000

  FREE ENERGIE OF THE ION-ELECTRON SYSTEM (eV)
  free  energy   TOTEN  =      -514.58042488 eV

  energy  without entropy=     -514.52314179  energy(sigma->0) =     -514.55178334

 d Force = 0.3289754E-04[ 0.308E-04, 0.350E-04]  d Energy = 0.4931240E-04-0.164E-04
 d Force =-0.1733944E+02[-0.173E+02,-0.173E+02]  d Ewald  =-0.1733944E+02-0.120E-07

 Quasi-Newton relaxation of ions (Broydens 2nd method)
  g(Force)  = 0.249E-04   g(Stress)= 0.000E+00

 retain information from N=  1 steps
 eigenvalues of (default step * inverse Hessian matrix)
  average eigenvalue of G=   6.8651
 eigenvalue spectrum of G is  6.8651

 reached required accuracy - stopping structural energy minimisation