 vasp.5.4.4.18Apr17-6-g9f103f2a35 (build Jun 30 2017 19:19:18) complex

 executed on         MareNostrum4 date 2022.05.13  14:35:19

 INCAR:
 POTCAR:    PAW_PBE Ru 04Feb2005
 POTCAR:    PAW_PBE H 15Jun2001
 POTCAR:    PAW_PBE C 08Apr2002

 POTCAR:    PAW_PBE Ru 04Feb2005

 POTCAR:    PAW_PBE H 15Jun2001

 POTCAR:    PAW_PBE C 08Apr2002

 Optimization of the real space projectors (new method)

 maximal supplied QI-value         = 13.98
 optimisation between [QCUT,QGAM] = [ 10.77, 21.68] = [ 32.47,131.56] Ry
 Optimized for a Real-space Cutoff    1.51 Angstroem

   l    n(q)    QCUT    max X(q) W(low)/X(q) W(high)/X(q)  e(spline)
   2      9    10.768    61.733    0.26E-03    0.97E-04    0.28E-06
   2      9    10.768    59.886    0.26E-03    0.10E-03    0.29E-06
   0     10    10.768    23.358    0.12E-03    0.28E-03    0.38E-06
   0     10    10.768    11.320    0.93E-04    0.23E-03    0.31E-06
   1      9    10.768    14.765    0.48E-03    0.21E-03    0.19E-06
   1      9    10.768     8.283    0.36E-03    0.16E-03    0.15E-06
 Optimization of the real space projectors (new method)

[...]

   l    n(q)    QCUT    max X(q) W(low)/X(q) W(high)/X(q)  e(spline)
   0      8    10.603    19.460    0.37E-03    0.59E-03    0.23E-06
   0      8    10.603    12.209    0.35E-03    0.56E-03    0.22E-06
   1      7    10.603     4.655    0.70E-04    0.28E-03    0.29E-06
 Optimization of the real space projectors (new method)

 maximal supplied QI-value         = 25.13
 optimisation between [QCUT,QGAM] = [ 10.81, 21.61] = [ 32.71,130.83] Ry
 Optimized for a Real-space Cutoff    1.23 Angstroem

   l    n(q)    QCUT    max X(q) W(low)/X(q) W(high)/X(q)  e(spline)
   0      8    10.807   115.676    0.36E-03    0.72E-03    0.24E-06
   0      8    10.807    87.132    0.35E-03    0.71E-03    0.24E-06
   1      7    10.807     4.429    0.19E-03    0.39E-03    0.11E-06
   1      7    10.807     2.733    0.14E-03    0.28E-03    0.13E-06
  PAW_PBE Ru 04Feb2005                  :
  PAW_PBE H 15Jun2001                   :
  PAW_PBE C 08Apr2002                   :

 POSCAR: Ru  H  C
  positions in cartesian coordinates
 exchange correlation table for  LEXCH =        8
   RHO(1)=    0.500       N(1)  =     2000
   RHO(2)=  100.500       N(2)  =     4000

 ion  position               nearest neighbor table
   1  0.000  0.083  0.000-  14 2.65  13 2.65 114 2.65  57 2.71   2 2.71 101 2.71 102 2.71   3 2.71
                           107 2.71
   2  0.167  0.000  0.000-  69 2.65  14 2.65  16 2.65  57 2.71   1 2.71  60 2.71   4 2.71   3 2.71
                            58 2.71
   3  0.083  0.167  0.000-  19 2.65  15 2.65  14 2.65   7 2.71 107 2.71   1 2.71   8 2.71   2 2.71
                             4 2.71
   4  0.250  0.083  0.000-  17 2.65  16 2.65  15 2.65  60 2.71   5 2.71   6 2.71   2 2.71   8 2.71
                             3 2.71
   5  0.417  0.000  0.000-  72 2.65  17 2.65 109 2.65 153 2.71   4 2.71  97 2.71  60 2.71 151 2.71
                             6 2.71
   6  0.333  0.167  0.000-  22 2.65  18 2.65  17 2.65  10 2.71   8 2.71   4 2.71  11 2.71   5 2.71
                            97 2.71
   7  1.000  0.333  0.000-  19 2.65 120 2.65  20 2.65   3 2.71 107 2.71 108 2.71   8 2.71 149 2.71
                             9 2.71
   8  0.167  0.250  0.000-  22 2.65  15 2.65  20 2.65  10 2.71   6 2.71   3 2.71   7 2.71   4 2.71
                             9 2.71
   9  0.083  0.417  0.000-  21 2.65  61 2.65  20 2.65  49 2.71  50 2.71 149 2.71  10 2.71   8 2.71
                             7 2.71
  10  0.250  0.333  0.000-  22 2.65  23 2.65  21 2.65   6 2.71   8 2.71   9 2.71  11 2.71  50 2.71
                            12 2.71
  11  0.417  0.250  0.000- 115 2.65  18 2.65  23 2.65 103 2.71  99 2.71   6 2.71  10 2.71  97 2.71
                            12 2.71
  12  0.333  0.417  0.000-  24 2.65  64 2.65  23 2.65  52 2.71  53 2.71 103 2.71  50 2.71  11 2.71
                            10 2.71
  13  0.000  0.000  0.107- 125 2.64  25 2.64  81 2.64 101 2.65   1 2.65  57 2.65  14 2.71 168 2.71
                            69 2.71 113 2.71  68 2.71 114 2.71
  14  0.083  0.083  0.107-  25 2.64  26 2.64  27 2.64   1 2.65   2 2.65   3 2.65  69 2.71  13 2.71
                           114 2.71  16 2.71  19 2.71  15 2.71
  15  0.167  0.167  0.107-  32 2.64  27 2.64  28 2.64   8 2.65   3 2.65   4 2.65  20 2.71  22 2.71
                            17 2.71  19 2.71  16 2.71  14 2.71
  16  0.250  0.000  0.107-  84 2.64  28 2.64  26 2.64  60 2.65   4 2.65   2 2.65  17 2.71  72 2.71
                            69 2.71  14 2.71  15 2.71  71 2.71
  17  0.333  0.083  0.107-  28 2.64  29 2.64  30 2.64   4 2.65   5 2.65   6 2.65  72 2.71  16 2.71
                            15 2.71 109 2.71  22 2.71  18 2.71
  18  0.417  0.167  0.107-  35 2.64  30 2.64 121 2.64  11 2.65   6 2.65  97 2.65  23 2.71 115 2.71
                           110 2.71  22 2.71 109 2.71  17 2.71
  19  1.000  0.250  0.107- 131 2.64  31 2.64  27 2.64 107 2.65   7 2.65   3 2.65 114 2.71 119 2.71
                            20 2.71  15 2.71 120 2.71  14 2.71
  20  0.083  0.333  0.107-  32 2.64  31 2.64  33 2.64   8 2.65   7 2.65   9 2.65  15 2.71  22 2.71
                           120 2.71  21 2.71  19 2.71  61 2.71
  21  0.167  0.417  0.107-  33 2.64  74 2.64  34 2.64   9 2.65  50 2.65  10 2.65  62 2.71  61 2.71
                            20 2.71  64 2.71  22 2.71  23 2.71
  22  0.250  0.250  0.107-  32 2.64  34 2.64  30 2.64   8 2.65  10 2.65   6 2.65  15 2.71  20 2.71
                            23 2.71  18 2.71  17 2.71  21 2.71
  23  0.333  0.333  0.107-  35 2.64  34 2.64  36 2.64  11 2.65  10 2.65  12 2.65  18 2.71 115 2.71
                            24 2.71  22 2.71  64 2.71  21 2.71
  24  0.417  0.417  0.107-  36 2.64  77 2.64 127 2.64  12 2.65  53 2.65 103 2.65  65 2.71  64 2.71
                            23 2.71 157 2.71 115 2.71 116 2.71
  25  0.000  0.083  0.214-  38 2.60  37 2.60 138 2.60  14 2.64  13 2.64 114 2.64  81 2.71  26 2.71
                           125 2.71 126 2.71  27 2.71 131 2.71
  26  0.167  0.000  0.214-  93 2.60  38 2.60  40 2.60  69 2.64  14 2.64  16 2.64  81 2.71  25 2.71
                            84 2.71  28 2.71  27 2.71  82 2.71
  27  0.083  0.167  0.214-  43 2.60  39 2.60  38 2.60  19 2.64  15 2.64  14 2.64  31 2.71 131 2.71
                            25 2.71  32 2.71  26 2.71  28 2.71
  28  0.250  0.083  0.214-  41 2.60  40 2.60  39 2.60  17 2.64  16 2.64  15 2.64  84 2.71  29 2.71
                            30 2.71  26 2.71  32 2.71  27 2.71
  29  0.417  0.000  0.214-  96 2.60  41 2.60 133 2.60  72 2.64  17 2.64 109 2.64 177 2.71  28 2.71
                           121 2.71  84 2.71 175 2.71  30 2.71
  30  0.333  0.167  0.214-  46 2.60  42 2.60  41 2.60  22 2.64  18 2.64  17 2.64  34 2.71  32 2.71
                            28 2.71  35 2.71  29 2.71 121 2.71
  31  1.000  0.333  0.214-  43 2.60 144 2.60  44 2.60  19 2.64 120 2.64  20 2.64  27 2.71 131 2.71
                           132 2.71  32 2.71 173 2.71  33 2.71
  32  0.167  0.250  0.214-  46 2.60  39 2.60  44 2.60  22 2.64  15 2.64  20 2.64  34 2.71  30 2.71
                            27 2.71  31 2.71  28 2.71  33 2.71
  33  0.083  0.417  0.214-  45 2.60  85 2.60  44 2.60  21 2.64  61 2.64  20 2.64  73 2.71  74 2.71
                           173 2.71  34 2.71  32 2.71  31 2.71
  34  0.250  0.333  0.214-  46 2.60  47 2.60  45 2.60  22 2.64  23 2.64  21 2.64  30 2.71  32 2.71
                            33 2.71  35 2.71  74 2.71  36 2.71
  35  0.417  0.250  0.214- 139 2.60  42 2.60  47 2.60 115 2.64  18 2.64  23 2.64 127 2.71 123 2.71
                            30 2.71  34 2.71 121 2.71  36 2.71
  36  0.333  0.417  0.214-  48 2.60  88 2.60  47 2.60  24 2.64  64 2.64  23 2.64  76 2.71  77 2.71
                           127 2.71  74 2.71  35 2.71  34 2.71
  37  0.000  0.000  0.317- 125 2.60  25 2.60  81 2.60  38 2.71 192 2.71 137 2.71  93 2.71 138 2.71
                            92 2.71
  38  0.083  0.083  0.317-  25 2.60  26 2.60  27 2.60  93 2.71  37 2.71 138 2.71  40 2.71  43 2.71
                            39 2.71
  39  0.167  0.167  0.317-  32 2.60  27 2.60  28 2.60  44 2.71  46 2.71  41 2.71  43 2.71  40 2.71
                            38 2.71
  40  0.250  0.000  0.317-  84 2.60  28 2.60  26 2.60  41 2.71  96 2.71  93 2.71  38 2.71  95 2.71
                            39 2.71
  41  0.333  0.083  0.317-  28 2.60  29 2.60  30 2.60  96 2.71  40 2.71  39 2.71 133 2.71  46 2.71
                            42 2.71
  42  0.417  0.167  0.317-  35 2.60  30 2.60 121 2.60  47 2.71 139 2.71 134 2.71  46 2.71 133 2.71
                            41 2.71
  43  1.000  0.250  0.317- 131 2.60  31 2.60  27 2.60 138 2.71 143 2.71  44 2.71  39 2.71  38 2.71
                           144 2.71
  44  0.083  0.333  0.317-  32 2.60  31 2.60  33 2.60  39 2.71  46 2.71 144 2.71  45 2.71  43 2.71
                            85 2.71
  45  0.167  0.417  0.317- 214 1.39 229 2.36  33 2.60  74 2.60  34 2.60  86 2.71  85 2.71  44 2.71
                            88 2.71  46 2.71  47 2.71
  46  0.250  0.250  0.317- 216 1.32 230 2.23  32 2.60  34 2.60  30 2.60  39 2.71  44 2.71  47 2.71
                            42 2.71  45 2.71  41 2.71
  47  0.333  0.333  0.317- 213 1.57 228 2.30  35 2.60  34 2.60  36 2.60 227 2.66  42 2.71 139 2.71
                            48 2.71  46 2.71  88 2.71  45 2.71
  48  0.417  0.417  0.317- 209 1.80 206 2.00 226 2.36 225 2.48  36 2.60  77 2.60 127 2.60  89 2.71
                            88 2.71  47 2.71 181 2.71 139 2.71 140 2.71
  49  0.000  0.583  0.000-  62 2.65  61 2.65 162 2.65   9 2.71  50 2.71 149 2.71 150 2.71  51 2.71
                           155 2.71
  50  0.167  0.500  0.000-  21 2.65  62 2.65  64 2.65   9 2.71  49 2.71  52 2.71  12 2.71  51 2.71
                            10 2.71
  51  0.083  0.667  0.000-  67 2.65  63 2.65  62 2.65  55 2.71 155 2.71  49 2.71  56 2.71  50 2.71
                            52 2.71
  52  0.250  0.583  0.000-  65 2.65  64 2.65  63 2.65  12 2.71  53 2.71  54 2.71  50 2.71  56 2.71
                            51 2.71
  53  0.417  0.500  0.000-  24 2.65  65 2.65 157 2.65 145 2.71 105 2.71  12 2.71  52 2.71 103 2.71
                            54 2.71
  54  0.333  0.667  0.000-  70 2.65  66 2.65  65 2.65  58 2.71  56 2.71  59 2.71 145 2.71  52 2.71
                            53 2.71
  55  1.000  0.833  0.000-  67 2.65 168 2.65  68 2.65  51 2.71 155 2.71 156 2.71  56 2.71 101 2.71
                            57 2.71
  56  0.167  0.750  0.000-  70 2.65  63 2.65  68 2.65  54 2.71  58 2.71  51 2.71  55 2.71  52 2.71
                            57 2.71
  57  0.083  0.917  0.000-  69 2.65  13 2.65  68 2.65   1 2.71   2 2.71 101 2.71  58 2.71  56 2.71
                            55 2.71
  58  0.250  0.833  0.000-  70 2.65  71 2.65  69 2.65  54 2.71  59 2.71  56 2.71  57 2.71  60 2.71
                             2 2.71
  59  0.417  0.750  0.000-  66 2.65  71 2.65 163 2.65  58 2.71  54 2.71 151 2.71 147 2.71 145 2.71
                            60 2.71
  60  0.333  0.917  0.000-  16 2.65  71 2.65  72 2.65   4 2.71   2 2.71  58 2.71   5 2.71  59 2.71
                           151 2.71
[...]
   0.791E+01 -.142E+02 0.159E+04   -.789E+01 0.142E+02 -.159E+04   -.188E-01 -.162E-01 -.393E+01   -.464E-02 0.738E-02 0.146E+00
   0.218E+01 -.478E+01 0.160E+04   -.225E+01 0.479E+01 -.160E+04   0.125E-01 -.689E-02 -.393E+01   -.305E-02 0.246E-02 0.146E+00
   0.545E+01 -.170E+02 0.159E+04   -.543E+01 0.170E+02 -.159E+04   -.176E-01 -.398E-01 -.386E+01   -.636E-02 0.918E-02 0.146E+00
   0.209E+01 -.954E+01 0.158E+04   -.210E+01 0.953E+01 -.158E+04   0.294E-01 -.683E-02 -.390E+01   -.433E-02 0.703E-02 0.162E+00
   0.686E+01 -.166E+02 0.159E+04   -.687E+01 0.166E+02 -.158E+04   0.235E-01 0.572E-03 -.388E+01   -.753E-03 0.359E-02 0.153E+00
   0.421E+01 -.625E+01 0.158E+04   -.423E+01 0.625E+01 -.158E+04   0.111E-01 -.299E-01 -.393E+01   0.856E-03 0.104E-01 0.160E+00
   0.614E+01 -.138E+02 0.158E+04   -.614E+01 0.138E+02 -.158E+04   0.719E-02 0.184E-01 -.389E+01   -.270E-04 0.819E-02 0.152E+00
   0.188E+01 -.156E+02 0.159E+04   -.185E+01 0.156E+02 -.159E+04   -.285E-01 -.477E-01 -.386E+01   -.914E-02 0.138E-01 0.151E+00
   0.438E+01 -.695E+01 0.158E+04   -.437E+01 0.691E+01 -.158E+04   -.806E-02 0.441E-01 -.390E+01   -.623E-02 0.801E-02 0.155E+00
[...]
   0.709E+02 0.178E+01 -.211E+03   -.768E+02 -.545E+00 0.212E+03   0.546E+01 -.114E+01 0.445E+00   -.405E-03 -.108E-02 -.225E-01
   0.127E+02 0.472E+02 -.227E+03   -.120E+02 -.506E+02 0.232E+03   -.565E+00 0.274E+01 -.494E+01   0.547E-05 0.102E-03 -.274E-01
   -.120E+03 -.968E+02 -.844E+03   0.121E+03 0.946E+02 0.849E+03   -.132E+01 -.713E-01 -.300E+01   0.619E-02 0.763E-02 -.937E-01
   -.984E+02 0.558E+02 -.834E+03   0.975E+02 -.537E+02 0.838E+03   0.306E+00 0.204E+00 -.138E+01   0.244E-02 0.585E-02 -.849E-01
   -.818E+01 -.100E+03 -.845E+03   0.961E+01 0.984E+02 0.849E+03   -.625E+00 -.161E+01 -.202E+01   -.338E-02 0.264E-02 -.877E-01
   -.494E+02 0.793E+02 -.836E+03   0.488E+02 -.785E+02 0.840E+03   -.114E+00 0.612E+00 -.114E+01   -.577E-02 0.519E-03 -.881E-01
   0.205E+02 -.963E+02 -.837E+03   -.195E+02 0.958E+02 0.841E+03   -.163E+00 -.202E+01 -.109E+01   -.460E-02 -.182E-02 -.915E-01
   -.334E+02 0.861E+02 -.836E+03   0.328E+02 -.862E+02 0.839E+03   -.222E+00 0.166E+01 -.606E+00   -.334E-02 -.538E-03 -.949E-01
   0.362E+02 -.910E+02 -.829E+03   -.355E+02 0.910E+02 0.832E+03   -.979E-01 -.152E+01 -.383E+00   0.759E-03 -.260E-02 -.947E-01
   -.212E+02 0.892E+02 -.838E+03   0.204E+02 -.887E+02 0.840E+03   -.230E+00 0.175E+01 -.130E+01   0.347E-02 0.106E-02 -.969E-01
   0.525E+02 -.799E+02 -.827E+03   -.520E+02 0.792E+02 0.831E+03   -.591E-01 -.477E+00 -.919E+00   0.569E-02 -.238E-03 -.911E-01
   0.285E+01 0.977E+02 -.842E+03   -.412E+01 -.962E+02 0.845E+03   0.656E+00 0.103E+01 -.271E+01   0.608E-02 0.422E-03 -.914E-01
   0.101E+03 -.504E+02 -.832E+03   -.100E+03 0.487E+02 0.837E+03   0.940E+00 0.220E+00 -.147E+01   0.218E-02 -.139E-02 -.842E-01
   0.113E+03 0.103E+03 -.853E+03   -.115E+03 -.100E+03 0.858E+03   0.142E+01 0.316E+00 -.260E+01   -.110E-02 -.407E-02 -.890E-01
   0.204E+01 -.102E+01 0.213E+02   -.455E-12 -.199E-11 -.421E-11   -.206E+01 0.987E+00 -.795E+02   0.122E-01 0.116E-01 0.577E+02

 POSITION                                       TOTAL-FORCE (eV/Angst)
      0.78291      1.35605      0.00000         0.000652      0.028177      0.735331
      3.13166      0.00000      0.00000        -0.018276     -0.004976      0.715630
      3.13166      2.71210      0.00000        -0.024692      0.041737      0.727843
      5.48040      1.35605      0.00000         0.018177     -0.026427      0.744358
      7.82915      0.00000      0.00000         0.004379      0.017036      0.706720
      7.82915      2.71210      0.00000         0.031452     -0.023390      0.762764
     21.92161      5.42419      0.00000        -0.036794     -0.010829      0.694958
      5.48040      4.06814      0.00000        -0.004656      0.027927      0.800103
      5.48040      6.78024      0.00000         0.005277      0.008213      0.736977
      7.82915      5.42419      0.00000        -0.025964      0.031806      0.736008
     10.17789      4.06814      0.00000         0.025708     -0.010667      0.806744
     10.17789      6.78024      0.00000        -0.020150      0.032706      0.756610
      0.00000      0.00000      2.14396         0.013573      0.002392     -0.750545
      2.34874      1.35605      2.14396        -0.008310     -0.026274     -0.756578
      4.69749      2.71210      2.14396         0.064865      0.028739     -0.673758
      4.69749      0.00000      2.14396         0.008014      0.013787     -0.686827
      7.04623      1.35605      2.14396         0.002393      0.015115     -0.727769
      9.39498      2.71210      2.14396        -0.007113     -0.005278     -0.782740
     21.13869      4.06814      2.14396        -0.004684      0.024216     -0.731410
      4.69749      5.42419      2.14396         0.043694     -0.042289     -0.771366
      7.04623      6.78024      2.14396         0.021488     -0.056675     -0.640581
      7.04623      4.06814      2.14396         0.006811      0.029191     -0.611594
      9.39498      5.42419      2.14396         0.011310      0.002106     -0.564332
     11.74372      6.78024      2.14396         0.041836      0.028781     -0.598445
      0.78291      1.35605      4.27205         0.020034      0.023806      0.125561
      3.13166      0.00000      4.27205        -0.015961     -0.036968      0.100214
      3.13166      2.71210      4.27205         0.040140      0.012893      0.240048
      5.48040      1.35605      4.27205        -0.005225      0.026953     -0.024842
      7.82915      0.00000      4.27205        -0.088486      0.020902      0.188733
      7.82915      2.71210      4.27205         0.120266     -0.187772     -0.243244
     21.92161      5.42419      4.27205         0.108786      0.057673      0.372318
      5.48040      4.06814      4.27205        -0.109981     -0.028617     -0.229994
      5.48040      6.78024      4.27205        -0.050246      0.130805     -0.163658
      7.82915      5.42419      4.27205         0.171671      0.082820     -0.941454
     10.17789      4.06814      4.27205        -0.019648      0.010123     -0.158218
     10.17789      6.78024      4.27205        -0.046018     -0.004976     -0.518666
      0.00000      0.00000      6.34142        -0.030677     -0.007302     -0.125235
      2.34874      1.35605      6.34142        -0.000047      0.018213     -0.126423
      4.69749      2.71210      6.34142        -0.373193     -0.266332     -0.282477
      4.69749      0.00000      6.34142         0.018333      0.042909     -0.043426
      7.04623      1.35605      6.34142         0.059752     -0.256247     -0.195150
      9.39498      2.71210      6.34142         0.307899     -0.654684     -0.326379
     21.13869      4.06814      6.34142        -0.008824     -0.003564     -0.078489
      4.69749      5.42419      6.34142        -0.751846      0.008104     -0.506461
      7.04623      6.78024      6.34142         0.478764      1.840603     -6.617544
      7.04623      4.06814      6.34142         0.110240      0.433892    -10.405778
      9.39498      5.42419      6.34142         0.267196     -0.075564     -4.112636
     11.74372      6.78024      6.34142         0.279634     -0.393901     -2.925380
      5.48040      9.49233      0.00000        -0.000466      0.010163      0.762030
      7.82915      8.13629      0.00000        -0.015635     -0.008337      0.722421
      7.82915     10.84838      0.00000        -0.002948      0.036561      0.754086
     10.17789      9.49233      0.00000        -0.001309     -0.018239      0.721685
     12.52663      8.13629      0.00000        -0.054806      0.004268      0.743550
     12.52663     10.84838      0.00000        -0.003656     -0.057967      0.729821
     26.61910     13.56048      0.00000         0.010435     -0.009726      0.717972
     10.17789     12.20443      0.00000         0.006433      0.019056      0.750097
     10.17789     14.91653      0.00000        -0.002889     -0.023208      0.719114
     12.52663     13.56048      0.00000         0.003005      0.004151      0.738197
     14.87538     12.20443      0.00000        -0.008385     -0.030701      0.770049
     14.87538     14.91653      0.00000        -0.001007      0.018782      0.713832
[...]
      6.98201      3.92804      7.65258         0.464436     -3.375147      8.635355
      5.63708      4.83102      8.36994        -0.477857      0.121906      0.471155
      6.83098      4.04335      9.41673         0.141113     -0.607460     -0.194723
     19.37297     10.29038      8.51276        -0.185255     -2.197509      1.287991
     18.46626      9.07040      8.49363        -0.564190      2.316082      2.901035
     16.99035      9.46699      8.53240         0.753211     -3.156957      1.854755
     16.08705      8.23356      8.56175        -0.692029      1.359948      2.720260
     14.60678      8.62019      8.55004         0.805765     -2.521240      2.410286
     13.71608      7.37947      8.62499        -0.817458      1.548926      2.166324
     12.23121      7.74312      8.57009         0.596561     -1.405721      2.924928
     11.36034      6.48863      8.65582        -1.004004      2.220683      1.309716
      9.87140      6.82238      8.55391         0.424761     -1.063736      3.163928
      9.02186      5.55123      8.61134        -0.583924      2.415479     -0.244562
      7.53303      5.86170      8.46469         1.639476     -1.457816      3.092830
      6.69916      4.59001      8.47757        -0.561517      2.658456      2.812184
    total drift:                               -0.004514     -0.022390     -0.478815

  FREE ENERGIE OF THE ION-ELECTRON SYSTEM (eV)
  free  energy   TOTEN  =     -1881.98142903 eV

  energy  without entropy=    -1881.85405193  energy(sigma->0) =    -1881.91774048

[...]

  free energy =  -0.186976869820E+04  energy without entropy=  -0.186963612655E+04

[...]

 d Force = 0.7531270E+01[ 0.348E+01, 0.116E+02]  d Energy = 0.7148620E+01 0.383E+00
 d Force =-0.7105171E+03[-0.725E+03,-0.696E+03]  d Ewald  =-0.7112587E+03 0.742E+00

 Steepest descent step on ions:
 trial-energy change:   -7.148620  1 .order   -7.531270  -11.587384   -3.475156
  (g-gl).g = 0.116E+02      g.g   = 0.116E+02  gl.gl    = 0.000E+00
 g(Force)  = 0.116E+02   g(Stress)= 0.000E+00 ortho     = 0.000E+00
 gamma     =   0.00000
 trial     =   1.00000
 opt step  =   1.96529  (harmonic =   1.42838) maximal distance =0.24561747
 next E    = -1890.463144   (d E  =  -8.48171)

[...]

 d Force = 0.9447938E+00[-0.146E+01, 0.335E+01]  d Energy = 0.8101311E+00 0.135E+00
 d Force =-0.7094555E+03[-0.719E+03,-0.700E+03]  d Ewald  =-0.7098716E+03 0.416E+00

[...]

 d Force = 0.2476492E+00[ 0.500E-01, 0.445E+00]  d Energy = 0.2491501E+00-0.150E-02
 d Force = 0.2178305E+03[ 0.217E+03, 0.219E+03]  d Ewald  = 0.2178406E+03-0.101E-01

[...]

 Conjugate gradient step on ions:
 trial-energy change:   -1.380201  1 .order   -1.381881   -1.760023   -1.003740
  (g-gl).g = 0.175E+01      g.g   = 0.158E+01  gl.gl    = 0.116E+02
 g(Force)  = 0.158E+01   g(Stress)= 0.000E+00 ortho     =-0.170E+00
 gamma     =   0.15083
 trial     =   1.13438
 opt step  =   2.63992  (harmonic =   2.63992) maximal distance =0.08269530
 next E    = -1892.237295   (d E  =  -2.04796)

[...]

 d Force = 0.8616715E+00[ 0.260E+00, 0.146E+01]  d Energy = 0.8480123E+00 0.137E-01
 d Force =-0.1526190E+03[-0.156E+03,-0.149E+03]  d Ewald  =-0.1526358E+03 0.168E-01

 Conjugate gradient step on ions:
 trial-energy change:   -0.848012  1 .order   -0.861671   -1.463039   -0.260304
  (g-gl).g = 0.103E+01      g.g   = 0.102E+01  gl.gl    = 0.158E+01
 g(Force)  = 0.102E+01   g(Stress)= 0.000E+00 ortho     = 0.363E-01
 gamma     =   0.65376
 trial     =   1.40221
 opt step  =   1.73361  (harmonic =   1.70569) maximal distance =0.06005139
 next E    = -1893.137248   (d E  =  -0.87859)

[...]

 d Force = 0.2622881E+00[-0.126E-01, 0.537E+00]  d Energy = 0.2633012E+00-0.101E-02
 d Force = 0.2452962E+03[ 0.243E+03, 0.247E+03]  d Ewald  = 0.2453015E+03-0.536E-02

[...]

 d Force = 0.7935587E-05[-0.121E-01, 0.121E-01]  d Energy =-0.6287540E-03 0.637E-03
 d Force = 0.1728873E+03[ 0.173E+03, 0.173E+03]  d Ewald  = 0.1728873E+03 0.144E-04

[...]

 d Force = 0.1889015E-05[-0.124E-04, 0.162E-04]  d Energy =-0.4803496E-04 0.499E-04
 d Force = 0.6206082E+01[ 0.621E+01, 0.621E+01]  d Ewald  = 0.6206081E+01 0.684E-06

[...]

 d Force = 0.1369790E-02[-0.387E-03, 0.313E-02]  d Energy = 0.1130876E-02 0.239E-03
 d Force = 0.6061132E+02[ 0.606E+02, 0.606E+02]  d Ewald  = 0.6061132E+02 0.351E-05

[...]

 d Force = 0.1353190E-04[-0.374E-04, 0.645E-04]  d Energy = 0.5296236E-04-0.394E-04
 d Force =-0.1010346E+02[-0.101E+02,-0.101E+02]  d Ewald  =-0.1010346E+02-0.337E-06

[...]

 d Force =-0.1249657E-06[-0.114E-04, 0.112E-04]  d Energy =-0.1654094E-04 0.164E-04
 d Force = 0.5275611E+01[ 0.528E+01, 0.528E+01]  d Ewald  = 0.5275611E+01-0.175E-06

[...]

 Conjugate gradient step on ions:
 trial-energy change:   -0.000324  1 .order   -0.000431   -0.000806   -0.000056
  (g-gl).g = 0.362E-03      g.g   = 0.348E-03  gl.gl    = 0.482E-03
 g(Force)  = 0.348E-03   g(Stress)= 0.000E+00 ortho     =-0.276E-04
 gamma     =   0.74993
 trial     =   2.46051
 opt step  =   2.64467  (harmonic =   2.64467) maximal distance =0.00399655
 next E    = -1899.139254   (d E  =  -0.00043)

[...]

 d Force = 0.2818881E-05[ 0.143E-05, 0.420E-05]  d Energy =-0.4910831E-05 0.773E-05
 d Force = 0.1661124E+01[ 0.166E+01, 0.166E+01]  d Ewald  = 0.1661124E+01-0.403E-07

[...]

 eigenvalue-minimisations  :  9890
 total energy-change (2. order) :-0.3137559E-04  (-0.1365055E-04)
 number of electron    1609.9999940 magnetization
 augmentation part      528.4286194 magnetization

[...]

 eigenvalues of (default mixing * dielectric matrix)
  average eigenvalue GAMMA=   0.6634
  2.3101  0.6126  0.2117  0.1198  0.0629

[...]

--------------------------------------- Iteration    126(   7)  ---------------------------------------

 eigenvalue-minimisations  :  6174
 total energy-change (2. order) : 0.7856870E-06  (-0.2673410E-05)
 number of electron    1609.9999940 magnetization
 augmentation part      528.4298139 magnetization

 DIPCOR: dipole corrections for dipol
 direction  3 min pos   150,
 dipolmoment           0.000000      0.000000     -0.853648 electrons x Angstroem
 Tr[quadrupol]    -99080.919351

 energy correction for charged system         0.000000 eV
 dipol+quadrupol energy correction           -0.011227 eV
 added-field ion interaction        -13.031385 eV  (added to PSCEN)

  free energy =  -0.188074138239E+04  energy without entropy=  -0.188060901115E+04

------------------------ aborting loop because EDIFF is reached ----------------------------------------

  Number of pair interactions contributing to vdW energy: 1149482
  Edisp (eV):  -18.39943

  FORCE on cell =-STRESS in cart. coord.  units (eV):
  Direction    XX          YY          ZZ          XY          YZ          ZX
  Alpha Z  2980.67845  2980.67845  2980.67845
  Ewald  347616.83913344040.89450************  1328.81835     8.08268     1.69624
  Hartree368446.36445365259.38502************  1143.14635     6.30573     1.79366
  E(xc)   -7503.16832 -7503.64873 -7519.09639     0.25283    -0.00004     0.01140
  Local  ************************749076.25469 -2482.24016   -14.43535    -3.46628
  n-local  2100.89806  2099.00579  1851.87180     1.54745     0.01732    -0.10468
  augment  8674.78986  8674.47594  8679.46258     0.14015     0.01471     0.00179
  Kinetic 18969.59814 18953.98056 19073.64504     9.32712    -0.05701    -0.06344
  Fock        0.00000     0.00000     0.00000     0.00000     0.00000     0.00000
  vdW       -23.02895   -21.88389   -19.59846    -0.53993    -0.00337     0.00811
  Total    -160.48496  -161.04694   -76.07333     0.45216    -0.07532    -0.12320
  in kB     -42.04681   -42.19405   -19.93109     0.11846    -0.01973    -0.03228

  FREE ENERGIE OF THE ION-ELECTRON SYSTEM (eV)
  free  energy   TOTEN  =     -1899.14081115 eV

  energy  without entropy=    -1899.00843990  energy(sigma->0) =    -1899.07462553

 d Force = 0.2923556E-03[ 0.227E-03, 0.357E-03]  d Energy = 0.2501362E-03 0.422E-04
 d Force = 0.9164403E+01[ 0.916E+01, 0.917E+01]  d Ewald  = 0.9164402E+01 0.102E-05

 Conjugate gradient step on ions:
 trial-energy change:   -0.000250  1 .order   -0.000292   -0.000357   -0.000227
  (g-gl).g = 0.232E-03      g.g   = 0.233E-03  gl.gl    = 0.291E-03
 g(Force)  = 0.233E-03   g(Stress)= 0.000E+00 ortho     = 0.670E-05
 gamma     =   0.79753
 trial     =   1.50093
 opt step  =   4.12784  (harmonic =   4.12784) maximal distance =0.00484089
 next E    = -1899.141052   (d E  =  -0.00049)

 reached required accuracy - stopping structural energy minimisation